Ti4 O8                                  
   1.00000000000000     
    10.2937698363999992    0.0000000000000000    0.0000000000000000
     0.0000000000000000    7.5542869568000004    0.0000000000000000
    13.4936954411732941    0.0100793460884437   20.0147360769675693
   Ti   O    Si
    32    96    16
Direct
  0.7808988527626082  0.0010726583350056  0.2205118826285140
  0.7808983956134558  0.5010730858694558  0.2205118660152662
  0.2809051650390199  0.2511021492923680  0.2205082039496734
  0.2809054398502849  0.7511020630993808  0.2205075996167984
  0.4442071915954576  0.9999952621262650  0.2619559986729363
  0.4442072941047971  0.4999953910329590  0.2619557169490341
  0.9442207205870843  0.2499714664920878  0.2619498135667938
  0.9442207445589814  0.7499708132673119  0.2619498416319594
  0.4184006881456042  0.0001399038393310  0.3951544618159255
  0.4184005952797958  0.5001394716440014  0.3951540776736267
  0.9184053931094446  0.2500848210106423  0.3951498057572094
  0.9184046446573755  0.7500844793139508  0.3951499672491351
  0.0797223193711715  0.0000885728664824  0.4378008684069332
  0.0797219803093992  0.5000883897986079  0.4378007617509317
  0.5797277870920559  0.7501407948301015  0.4378008052167668
  0.5797275049229533  0.2501413990713769  0.4378012649619717
  0.0536271563771324  0.9998909634416849  0.5705440178910676
  0.0536269583809745  0.4998897609445661  0.5705441271567377
  0.5536241097756320  0.2498396333514833  0.5705436578658791
  0.5536244463721186  0.7498389273551822  0.5705434025460898
  0.7149551790425464  0.9998384991928850  0.6131831062588647
  0.7149556110860409  0.4998382400358785  0.6131831708150276
  0.2149514507961917  0.2498905896636292  0.6131883502656285
  0.2149515619072399  0.7498906860083905  0.6131878541700384
  0.6890843993393241  0.0000225151532034  0.7463759020980227
  0.1890729499123193  0.2500511346487710  0.7463814154677907
  0.1890729751337664  0.7500517327037916  0.7463814307125933
  0.6890841186416877  0.5000234139188531  0.7463762404784484
  0.3523989511232285  0.9989483503181968  0.7878164168531978
  0.3523988405467811  0.4989483559373807  0.7878165317227631
  0.8523926163130296  0.7489198143552306  0.7878218146050107
  0.8523922104883018  0.2489197734398344  0.7878216513334584
  0.4289683288517674  0.2489661410714835  0.0155459809027114
  0.4289680526871589  0.7489668834742870  0.0155460742158770
  0.9289561818321987  0.9990630891340923  0.0155529309644597
  0.9289558842328578  0.4990605655398760  0.0155530738978852
  0.6294779259707112  0.0041278324841906  0.0844302003445168
  0.6294777897168319  0.5041298876389497  0.0844301831137990
  0.1294879634737411  0.2540553110487590  0.0844245697693275
  0.1294877999336841  0.7540550564160342  0.0844247321179460
  0.2437743732342791  0.0033402908186537  0.0984307035371944
  0.2437744154222529  0.5033401252220081  0.0984305676194022
  0.7437604115557471  0.2533974343799656  0.0984366021093010
  0.7437622830970076  0.7533972866511818  0.0984363530047485
  0.4232482601100999  0.2473488528222524  0.1191817781401988
  0.9232461289321113  0.9972763956540767  0.1191855968479446
  0.9232462236217610  0.4972760327706946  0.1191854916179120
  0.4232481002138707  0.7473494014364480  0.1191817779885669
  0.1529528598547771  0.2505885779311834  0.1844720919170260
  0.1529527144177469  0.7505879352471017  0.1844721648683477
  0.6529463167162545  0.0006346272910169  0.1844766131669505
  0.6529463394600775  0.5006345738331093  0.1844764932959060
  0.8140474543518064  0.2503469273922217  0.2257244083719081
  0.8140473361973921  0.7503469233908286  0.2257243479078800
  0.3140734696550431  0.0003711778680689  0.2257127574800856
  0.3140733731796589  0.5003709586712023  0.2257127860224347
  0.9180385337818958  0.0003253405150928  0.2544619797311553
  0.9180385643255826  0.5003249108246072  0.2544620026431838
  0.4180132484436881  0.2503480332425849  0.2544752621209105
  0.4180133218075982  0.7503480457622987  0.2544752095422732
  0.0764745938183098  0.2502432794230333  0.2995048183752885
  0.5764674423025512  0.0002384795945398  0.2995098009612816
  0.5764674445646384  0.5002386339803947  0.2995098411376093
  0.0764746127986118  0.7502432983373440  0.2995048306742034
  0.7886559046138623  0.2502025594742426  0.3580698943695539
  0.7886554432748671  0.7502028993622631  0.3580700561989973
  0.2886498542281262  0.0002226333666422  0.3580738358174674
  0.2886497136931185  0.5002228512839098  0.3580738863449974
  0.4465407057795235  0.2501484512248573  0.4021039497683613
  0.4465407250622797  0.7501479935102425  0.4021039024863989
  0.9465537641442084  0.0001145898377120  0.4020948900331518
  0.9465538087337483  0.5001144068523370  0.4020949325141431
  0.5519466328678683  0.0001168942178256  0.4308243641882302
  0.5519465793418908  0.5001169385616764  0.4308243709974109
  0.0519359182149604  0.2500845637998264  0.4308269374519938
  0.0519358811118089  0.7500842957052275  0.4308268719021707
  0.7102187235850085  0.7500142950219757  0.4749530556936657
  0.2102131184978877  0.0000394221531662  0.4749548620049840
  0.2102131172995018  0.5000391752628869  0.4749549092266274
  0.7102188469946409  0.2500142606490168  0.4749530625189010
  0.4231358285875027  0.2499708750458853  0.5333895380371279
  0.4231357270632600  0.7499707714894385  0.5333896259164642
  0.9231371215560440  0.9999382068861185  0.5333877198856453
  0.9231370716983555  0.4999385413967544  0.5333876972044803
  0.0814293041734305  0.2498983432864210  0.5775087018923442
  0.5814200237257855  0.9998640617076737  0.5775095935914748
  0.5814199712570519  0.4998642999495358  0.5775095826059277
  0.0814294030778378  0.7498985684127583  0.5775087425581169
  0.1867830254350764  0.9998690400597742  0.6062565097935857
  0.1867829982124319  0.4998693254928935  0.6062565329887817
  0.6867913492440204  0.2498333282925394  0.6062502432012811
  0.6867910593755585  0.7498333844534517  0.6062503698745200
  0.3446905347111385  0.2497811646660238  0.6502671431202321
  0.8446926750804747  0.9997803342208444  0.6502623524875404
  0.3446905024459463  0.7497809211505437  0.6502672591470109
  0.8446924431326764  0.4997802316884748  0.6502625146098369
  0.0568368043697866  0.7497692219537094  0.7088330085255808
  0.0568366210286386  0.2497692774347432  0.7088330785017377
  0.5568405998505338  0.9997615340471850  0.7088274705809319
  0.5568405985174040  0.4997618131246562  0.7088276320460534
  0.7153371536198182  0.7496649234941396  0.7538285242798413
  0.7153371733841642  0.2496651881238344  0.7538285642189427
  0.2153005393837884  0.9996944603238271  0.7538450181531372
  0.2153008924265607  0.4996948552109930  0.7538450154241806
  0.8192024964953240  0.4996490096829557  0.7826323469395716
  0.8192025633754639  0.9996485560368031  0.7826321911546040
  0.3192209107868177  0.2496740574807284  0.7826233225068415
  0.3192209146523408  0.7496740371406760  0.7826230911595727
  0.9803660671978683  0.2494479138755662  0.8238604003921218
  0.4803706330505143  0.9993434237240003  0.8238551858369704
  0.9803661219156338  0.7494477036664977  0.8238603732138027
  0.4803709119396112  0.4993435787387612  0.8238551489673417
  0.7100870591452234  0.7526641452513972  0.8891500322327597
  0.7100866476713678  0.2526636029580909  0.8891499836015304
  0.2100889088630515  0.0027629900481261  0.8891476264242080
  0.2100894178597130  0.5027623170529855  0.8891476181854598
  0.8895729568017534  0.4966588383733733  0.9098984349883805
  0.3895736941652412  0.7465758367632642  0.9098938777265585
  0.3895729491543227  0.2465754380671627  0.9098941097273882
  0.8895742479152595  0.9966591893011665  0.9098980850826565
  0.5038631350832451  0.9958545039591568  0.9238905251101160
  0.5038632950390609  0.4958532996424557  0.9238904008428686
  0.0038589018931306  0.2459483415444019  0.9239001909708157
  0.0038586153742769  0.7459474924632895  0.9239003040430677
  0.2043932090395700  0.0009044291683354  0.9927781685886926
  0.7043943613847229  0.2510069697746224  0.9927818202743504
  0.2043933005971246  0.5009052438062472  0.9927782024741031
  0.7043942903556756  0.7510086422030664  0.9927816858909787
  0.1227808493085293  0.9794099978872123  0.0713037035068197
  0.1227806941932940  0.4794100123788034  0.0713037275458771
  0.6227756862036588  0.2294697926565201  0.0713062991097891
  0.6227760861008714  0.7294725521511876  0.0713063711254978
  0.7825322931637794  0.9890090224380127  0.0955424293802261
  0.7825313968446977  0.4890100802420941  0.0955423127414169
  0.2825418793344394  0.2389751407850972  0.0955373624662289
  0.2825417263919575  0.7389758549679074  0.0955374496317143
  0.3508037459105690  0.0110095294699599  0.9127853735253343
  0.3508039927534211  0.5110104098774485  0.9127852355562878
  0.8508080222581735  0.2610411429762222  0.9127887896447414
  0.8508082363392473  0.7610411554299231  0.9127888454214899
  0.0105622658541083  0.5206105222192126  0.9370255185464892
  0.0105626674579512  0.0206120887567779  0.9370253068325048
  0.5105649973777746  0.2705437345686153  0.9370192267657407
  0.5105654231530123  0.7705450780500123  0.9370192631909807
