Ti4 O8
   1.000
    10.2937698363999992    0.0000000000000000    0.0000000000000000
     0.0000000000000000    7.5542869568000004    0.0000000000000000
    13.4936954411732941    0.0100793460884437   20.0147360769675693
   Ti   O 
   48   96
Cartesian
      7.90345733     1.88857174     9.45168539    Ti 
     14.03933022     1.88857174    19.99271086    Ti 
      7.90345733     5.66571522     9.45168539    Ti 
     14.03933022     5.66571522    19.99271086    Ti 
     15.42529599     1.88857174    16.47903601    Ti 
     21.56116907     1.88857174    27.02006180    Ti 
     15.42529599     5.66571522    16.47903601    Ti 
     21.56116907     5.66571522    27.02006180    Ti 
     16.81126126     1.88857174    12.96536055    Ti 
     22.94713360     1.88857174    23.50638508    Ti 
     16.81126126     5.66571522    12.96536055    Ti 
     22.94713360     5.66571522    23.50638508    Ti 
      5.67650595    -0.00000000     8.57326651    Ti 
     11.81237865    -0.00000000    19.11429167    Ti 
      5.67650595     3.77714348     8.57326651    Ti 
     11.81237865     3.77714348    19.11429167    Ti 
     13.19834452    -0.00000000    15.60061684    Ti 
     19.33421686    -0.00000000    26.14164137    Ti 
     13.19834452     3.77714348    15.60061684    Ti 
     19.33421686     3.77714348    26.14164137    Ti 
     14.58430977     0.00000000    12.08694136    Ti 
     20.72018285    -0.00000000    22.62796715    Ti 
     14.58430977     3.77714348    12.08694136    Ti 
     20.72018285     3.77714348    22.62796715    Ti 
     11.66437088    -0.00000000    12.96535802    Ti 
     17.80024323    -0.00000000    23.50638257    Ti 
     11.66437088     3.77714348    12.96535802    Ti 
     17.80024323     3.77714348    23.50638257    Ti 
     13.05033665     0.00000000     9.45168288    Ti 
     19.18620954    -0.00000000    19.99270835    Ti 
     13.05033665     3.77714348     9.45168288    Ti 
     19.18620954     3.77714348    19.99270835    Ti 
     10.27840532    -0.00000000    16.47903351    Ti 
     16.41427840    -0.00000000    27.02005930    Ti 
     10.27840532     3.77714348    16.47903351    Ti 
     16.41427840     3.77714348    27.02005930    Ti 
      9.43742660     1.88857174    12.08694199    Ti 
     15.57329931     1.88857174    22.62796715    Ti 
      9.43742660     5.66571522    12.08694199    Ti 
     15.57329931     5.66571522    22.62796715    Ti 
     10.82339287     1.88857174     8.57326746    Ti 
     16.95926576     1.88857174    19.11429294    Ti 
     10.82339287     5.66571522     8.57326746    Ti 
     16.95926576     5.66571522    19.11429294    Ti 
     18.34523102     1.88857174    15.60061746    Ti 
     24.48110373     1.88857174    26.14164261    Ti 
     18.34523102     5.66571522    15.60061746    Ti 
     24.48110373     5.66571522    26.14164261    Ti 
      9.75220147     1.88857174    10.18092087    O  
     15.88807454     1.88857174    20.72194664    O  
      9.75220147     5.66571522    10.18092087    O  
     15.88807454     5.66571522    20.72194664    O  
     17.27404012     1.88857174    17.20827118    O  
     23.40991283     1.88857174    27.74929633    O  
     17.27404012     5.66571522    17.20827118    O  
     23.40991283     5.66571522    27.74929633    O  
      8.36623652     1.88857174    13.69459633    O  
     14.50210886     1.88857174    24.23562085    O  
      8.36623652     5.66571522    13.69459633    O  
     14.50210886     5.66571522    24.23562085    O  
      7.58946446     1.88857174    11.35801501    O  
     13.72533735     1.88857174    21.89904048    O  
      7.58946446     5.66571522    11.35801501    O  
     13.72533735     5.66571522    21.89904048    O  
      8.97543021     1.88857174     7.84434025    O  
     15.11130270     1.88857174    18.38536502    O  
      8.97543021     5.66571522     7.84434025    O  
     15.11130270     5.66571522    18.38536502    O  
     16.49726863     1.88857174    14.87169018    O  
     22.63314097     1.88857174    25.41271470    O  
     16.49726863     5.66571522    14.87169018    O  
     22.63314097     5.66571522    25.41271470    O  
      6.05547734     1.88857174     8.72275134    O  
     12.19135014     1.88857174    19.26377665    O  
      6.05547734     5.66571522     8.72275134    O  
     12.19135014     5.66571522    19.26377665    O  
     13.57731607     1.88857174    15.75010182    O  
     19.71318915     1.88857174    26.29112761    O  
     13.57731607     5.66571522    15.75010182    O  
     19.71318915     5.66571522    26.29112761    O  
     14.96328134     1.88857174    12.23642634    O  
     21.09915368     1.88857174    22.77745086    O  
     14.96328134     5.66571522    12.23642634    O  
     21.09915368     5.66571522    22.77745086    O  
      7.52523321    -0.00000000     9.30249525    O  
     13.66110563    -0.00000000    19.84351992    O  
      7.52523321     3.77714348     9.30249525    O  
     13.66110563     3.77714348    19.84351992    O  
     15.04707208    -0.00000000    16.32984570    O  
     21.18294479    -0.00000000    26.87087086    O  
     15.04707208     3.77714348    16.32984570    O  
     21.18294479     3.77714348    26.87087086    O  
     16.43303736     0.00000000    12.81617024    O  
     22.56891006    -0.00000000    23.35719540    O  
     16.43303736     3.77714348    12.81617024    O  
     22.56891006     3.77714348    23.35719540    O  
     14.89908670     0.00000000    10.18092087    O  
     21.03495976     0.00000000    20.72194664    O  
     14.89908670     3.77714348    10.18092087    O  
     21.03495976     3.77714348    20.72194664    O  
     12.12715520    -0.00000000    17.20827118    O  
     18.26302791    -0.00000000    27.74929633    O  
     12.12715520     3.77714348    17.20827118    O  
     18.26302791     3.77714348    27.74929633    O  
     13.51312144    -0.00000000    13.69459633    O  
     19.64899378    -0.00000000    24.23562085    O  
     13.51312144     3.77714348    13.69459633    O  
     19.64899378     3.77714348    24.23562085    O  
     12.73634994     0.00000000    11.35801533    O  
     18.87222265    -0.00000000    21.89904048    O  
     12.73634994     3.77714348    11.35801533    O  
     18.87222265     3.77714348    21.89904048    O  
     14.12231544     0.00000000     7.84434025    O  
     20.25818793     0.00000000    18.38536502    O  
     14.12231544     3.77714348     7.84434025    O  
     20.25818793     3.77714348    18.38536502    O  
     11.35038469    -0.00000000    14.87169081    O  
     17.48625740    -0.00000000    25.41271597    O  
     11.35038469     3.77714348    14.87169081    O  
     17.48625740     3.77714348    25.41271597    O  
      9.81639611    -0.00000000    12.23642634    O  
     15.95226845    -0.00000000    22.77745086    O  
      9.81639611     3.77714348    12.23642634    O  
     15.95226845     3.77714348    22.77745086    O  
     11.20236186     0.00000000     8.72275119    O  
     17.33823474    -0.00000000    19.26377665    O  
     11.20236186     3.77714348     8.72275119    O  
     17.33823474     3.77714348    19.26377665    O  
     18.72420039     0.00000000    15.75010182    O  
     24.86007346    -0.00000000    26.29112761    O  
     18.72420039     3.77714348    15.75010182    O  
     24.86007346     3.77714348    26.29112761    O  
     11.28615372     1.88857174    12.81617087    O  
     17.42202606     1.88857174    23.35719540    O  
     11.28615372     5.66571522    12.81617087    O  
     17.42202606     5.66571522    23.35719540    O  
     12.67211948     1.88857174     9.30249571    O  
     18.80799237     1.88857174    19.84352118    O  
     12.67211948     5.66571522     9.30249571    O  
     18.80799237     5.66571522    19.84352118    O  
      9.90018877     1.88857174    16.32984633    O  
     16.03606184     1.88857174    26.87087212    O  
      9.90018877     5.66571522    16.32984633    O  
     16.03606184     5.66571522    26.87087212    O  
