Ti4 O8                                  
   1.00000000000000     
    11.5607959665632993    0.0000000000000000    0.0000000000000000
     0.0000000000000000   11.5607959665632993    0.0000000000000000
     0.0000000000000000    0.0000000000000000   19.2862138499999993
   Ti   O    Co
    70   142     2
Direct
  0.0028276550480608  0.1675306402428776  0.5648784506177914
  0.3331215300402209  0.3335049024128515  0.4374484617022307
  0.1657727174559785  0.9961493156171105  0.8115021325171945
  0.1673525824322141  0.1668458422188246  0.6906469219985149
  0.0046530640568417  0.1677265972809155  0.0628836238312835
  0.3315335756786085  0.3335465068118660  0.9379411799610646
  0.1670500298507529  0.9994656273816500  0.3148598883346515
  0.1673772425038073  0.1668654296273036  0.1894133194414337
  0.0013335755454386  0.4985911954149259  0.5632939647559145
  0.3332927826909476  0.6665025540904324  0.4397044623645825
  0.1655296109682710  0.3370743901313994  0.8115190286056829
  0.1671154050970688  0.5019924106110896  0.6882514646167964
  0.0015275248909246  0.4958950879854295  0.0655671826431489
  0.3229881311111693  0.6662370740095075  0.9400699842734476
  0.1632007234013023  0.3316316663600945  0.3163115182031042
  0.1673111800327351  0.4968952770557014  0.1905395950296273
  0.0010891927558952  0.8329960030298658  0.5634470896180575
  0.3333690090519837  0.0009103884060409  0.4403067365578587
  0.1670997206803971  0.8318461923362512  0.6882930266759303
  0.0020700772034752  0.8402987495567475  0.0644099099174944
  0.3319111015947038  0.9994180829912508  0.9380356918662655
  0.1669225866663108  0.6654889471355947  0.3136069408077432
  0.1664216356956041  0.8335829354486574  0.1902746505458384
  0.3322618604975460  0.1684165586978503  0.5638416892557224
  0.6676229198908227  0.3333567883927939  0.4393781898563640
  0.4981564972795512  0.0000226803523271  0.8140838442033188
  0.4988865968428888  0.1666175719039342  0.6883923820965240
  0.3332840706266667  0.1666242678151403  0.0625741445977140
  0.6677731290133595  0.3341006435774942  0.9374539271095452
  0.4995155575618285  0.9993329241747788  0.3145526899642919
  0.4988990422135649  0.1671747131191103  0.1893215781887566
  0.3326201904293096  0.4981456341320118  0.5634652564272463
  0.6625050845457858  0.6668810679696618  0.4398157385011753
  0.4984806977232139  0.3332005830474595  0.8141115794543018
  0.4999169642113687  0.4965703577907742  0.6878118959657044
  0.3334832051562996  0.4988712565294721  0.0644519200953760
  0.6410779322190667  0.6658608966212602  0.9456551440290564
  0.5033230290567233  0.3318139365598933  0.3159911638377830
  0.4989373177122471  0.4973881095871320  0.1899352812617908
  0.3325980931558061  0.8329622562755684  0.5635193278870011
  0.6637796714518737  0.0016217577437192  0.4411628781572473
  0.4960282240976595  0.6665144838665582  0.8098911070712053
  0.5000568730215854  0.8367123238168651  0.6878912097105976
  0.3329310276271371  0.8342000850886152  0.0641707615118992
  0.6681408926747964  0.0002599349752295  0.9372472379062406
  0.4994667824792975  0.6655101342766208  0.3133284695998759
  0.4989842470523079  0.8337619459525323  0.1896875474662253
  0.6662334661737441  0.1676482103806692  0.5647768046156580
  0.9977988703403439  0.3330690747959525  0.4392128769284986
  0.8323753360060142  0.0002397276267943  0.8127082206846520
  0.8336170382926202  0.1667167572422272  0.6874332809672492
  0.6613112359250893  0.1674413047837873  0.0620206371226054
  0.0013371472228509  0.3332045381866275  0.9376275030810987
  0.8330859899435530  0.9776242963159301  0.3209704565154255
  0.8325005334393899  0.1834246524597750  0.1803506512944507
  0.6661247616179642  0.4990631634030187  0.5636881214439087
  0.0036496898937937  0.6669589698503846  0.4398487709919439
  0.8325157248218832  0.3330256405833742  0.8128229325212323
  0.8346830009354658  0.4976013129616008  0.6864222986649886
  0.6666264093589692  0.4978277641092884  0.0652408826601545
  0.0173549638826369  0.6657321683938551  0.9474803141332504
  0.8335997366653680  0.4889830224094459  0.1889196714989360
  0.6662417021918874  0.8327960957094143  0.5638383448016108
  0.0022995626589699  0.0021120697360037  0.4410096652352289
  0.8109731510913044  0.6664852862764433  0.8069449070321085
  0.8347160643081559  0.8356121093011946  0.6866102355739941
  0.6648555620804883  0.8374211572247060  0.0639225241826434
  0.0016144057566734  0.0005870461947798  0.9373256216774423
  0.8331089342920421  0.6626740086450905  0.3184636359934425
  0.8331267057576925  0.8076307906394028  0.1830028201748511
  0.3333504352239112  0.1666672854824020  0.6673735245547191
  0.1671219452962485  0.1663628944919448  0.5847528890376510
  0.0016193669256653  0.1660411160069540  0.4610509072413440
  0.3338556370500665  0.3332759098335215  0.5431658816789858
  0.1670680973911019  0.3331163249540346  0.4185810364330398
  0.9987923807700582  0.9980646809851896  0.8353778131643846
  0.1666949710735095  0.0000960394226404  0.7092097723486266
  0.1664093696843297  0.1665016756187079  0.7909452708799000
  0.3332007751425723  0.1662046878786019  0.1666324256159212
  0.1681259837180704  0.1652304237685927  0.0843060087293606
  0.0007168134391691  0.1662564491085516  0.9593331610295280
  0.3335145271505812  0.3330224030783619  0.0418426370526994
  0.1662995294150062  0.3323566253703379  0.9167793173191516
  0.0000020652007096  0.9947910454327841  0.3382017518063879
  0.1656981708748990  0.0002414667940611  0.2107605162042359
  0.1650056946143977  0.1653591656055999  0.2922246224792173
  0.3338495188774030  0.4988374887704130  0.6669071593114734
  0.1667611235554675  0.4994945354799010  0.5841932727809535
  0.0010900413954611  0.5003800996358561  0.4605713319180209
  0.3333558145099320  0.6666945224193748  0.5420065802448654
  0.1670380052305817  0.6660207996323451  0.4176788646520148
  0.9988457129402035  0.3352803392506974  0.8351974405432873
  0.1666963481308516  0.3329691694611620  0.7091753982623137
  0.1663722776908148  0.4976203608694368  0.7903343373655417
  0.3331968529787523  0.5001293521796644  0.1680542305807713
  0.1665615209759507  0.4976473164998691  0.0869559783632756
  0.0045310494940280  0.4979122310347130  0.9632719264578764
  0.3291524190691604  0.6664827946375069  0.0428945483723214
  0.1632972970558783  0.6661500754794212  0.9118279008174747
  0.0023621361094794  0.3325798108283284  0.3373497374098998
  0.1684191126949995  0.3324458700159349  0.2109826119596452
  0.1660820820845579  0.5000199487800783  0.2927583708371919
  0.3338361522488012  0.8343720088124436  0.6667783820800457
  0.1667266747476547  0.8337731040732493  0.5841432889856594
  0.0009245309177814  0.8328563625506041  0.4607814420522960
  0.3338814507016812  0.9998562985866968  0.5421183100328634
  0.1675902768439045  0.0010639186313815  0.4179690805379744
  0.1666850899869471  0.6666420115740630  0.7032725991273751
  0.1662748558941074  0.8355320341250103  0.7903425122637169
  0.3331988800945361  0.8333318733722980  0.1678134431993963
  0.1662144433230305  0.8350683946226245  0.0867663306390719
  0.0052883727377773  0.8349250612232042  0.9634695937475666
  0.3335349261205123  0.9991924973893531  0.0416127759899014
  0.1662907576271364  0.0005625183189447  0.9168408030814339
  0.0009076427152056  0.6699239531694623  0.3358610270768719
  0.1642623709996154  0.6666904479605732  0.2107626834769643
  0.1679092637760683  0.8336802317759247  0.2923154100807364
  0.6662836093266395  0.1666116964334456  0.6676278250809132
  0.4996458231662250  0.1663387495126056  0.5860150267067600
  0.3333088601027771  0.1667990330256385  0.4609384081726981
  0.6650678288087333  0.3331224138826367  0.5435836203778160
  0.4995266846068595  0.3331534594599190  0.4184571272494764
  0.3335006088163015  0.9988566540154409  0.8352008707967664
  0.4991243402185558  0.0001808982044080  0.7101422241976559
  0.4995742701551542  0.1665261484434515  0.7922558456499971
  0.6639800448976648  0.1712829657826873  0.1639418142149925
  0.4982381619197488  0.1652573005197147  0.0839863566695548
  0.3333915167735745  0.1663388773527578  0.9598311387681375
  0.6634114229248451  0.3332315171449340  0.0410159557779448
  0.4998088395900704  0.3360021654617414  0.9169684925810777
  0.3333194509292848  0.9998379580299986  0.3355911630800551
  0.5006980771440587  0.0000792041794276  0.2104485318261523
  0.5015173888424409  0.1653735361355202  0.2919436537934349
  0.6660405659010928  0.4991477402717585  0.6666573468585081
  0.4996986718513599  0.5003803398548884  0.5853943834307939
  0.3334242805895947  0.4999545335222553  0.4606357797786094
  0.6660433278871812  0.6665309844422447  0.5423775584992409
  0.4993281836381051  0.6660014202626200  0.4175329389115585
  0.3335535998056388  0.3341965024297696  0.8353152236794819
  0.4991485555721787  0.3329542690050241  0.7101239734277652
  0.5033171965753436  0.4989525319630752  0.7919202307997261
  0.6663256329294853  0.4935653318041671  0.1672843021722829
  0.4988200977874319  0.4994000093757592  0.0856773652180409
  0.3277415020733401  0.4999764786800585  0.9611205132079994
  0.6631418113848169  0.6656295800250343  0.0454429363809608
  0.4931051981581148  0.6658179190021968  0.9265775490764407
  0.3333646589227025  0.3326395827167495  0.3368919085401389
  0.4980184012329815  0.3326239060353978  0.2106744157316219
  0.5005295467858503  0.5001253017510708  0.2922114820902039
  0.6660262693523749  0.8339892842782157  0.6667859959518415
  0.4997342937091119  0.8328710889983576  0.5853504422978758
  0.3334067088590992  0.8331215178387047  0.4603551563929692
  0.6654348818282337  0.9997128511962028  0.5433423617329912
  0.4988794343492496  0.0010586475506830  0.4178570045149043
  0.3450470318388056  0.6666375668129635  0.8388301711680463
  0.4987057153983576  0.6666075167368033  0.7112531093597537
  0.5033734737807503  0.8342512379373884  0.7919206671471652
  0.6684159600979489  0.8377843218925909  0.1670073897546363
  0.4992582935132757  0.8333277491864780  0.0854818859219398
  0.3277996437457518  0.8325727499151893  0.9609442247392349
  0.6647489705798227  0.9998850821490674  0.0415512781548167
  0.4997009303968147  0.9970273277024693  0.9169774195528242
  0.3332584292376777  0.6664810378725459  0.3355208296793539
  0.5021397758881518  0.6666915738208640  0.2104489674913491
  0.4985052732011545  0.8336144134009852  0.2917637845801830
  0.0002821607950777  0.1666051796489457  0.6670589045378856
  0.8329656820388951  0.1666386153198596  0.5856813284918463
  0.6647847190618822  0.1660249417315109  0.4614447708883818
  0.0008136007068534  0.3329520130413369  0.5433598886342162
  0.8330363780207115  0.3331319410337250  0.4245917984734162
  0.6669343469807277  0.0010949773052063  0.8355740570640461
  0.8341798842686912  0.0008583175349321  0.7096975081030120
  0.8330867840371439  0.1665434839772318  0.7921207248127633
  0.0016370225211629  0.1713276805583740  0.1643837753899015
  0.8322489401399864  0.1675274335272179  0.0822852167352658
  0.6661211161104765  0.1663216655869431  0.9588186823047733
  0.0009197142610167  0.3316772653110345  0.0423556989828268
  0.8334069204248949  0.3343798815852738  0.9169874844747914
  0.6661033383458613  0.9947332268485152  0.3382582569776725
  0.8326997653752169  0.0660249448392058  0.2438325887188501
  0.9993535858427431  0.4985278480384586  0.6664108648671347
  0.8328970388922512  0.4992689350638099  0.5842794577069588
  0.6649619888754451  0.5004376275384010  0.4606944605277961
  0.0001356763230393  0.6665490666541563  0.5422834085134741
  0.8330623873166512  0.6655450691685089  0.4167592276237883
  0.6669173756679178  0.3323539439801519  0.8354554399269278
  0.8341548101776753  0.3323069249022783  0.7096612674805962
  0.8278812013805871  0.4996546746945687  0.7893829362738821
  0.9994032042944440  0.4931988845265088  0.1685851409834507
  0.8330947838318281  0.4945442582695709  0.0859245501105598
  0.6710758257517194  0.5019499637300794  0.9607130785068706
  0.0013056823681750  0.6654371597047474  0.0458149315697730
  0.9007953636677156  0.6666994626789352  0.8833978049423684
  0.6639551572599121  0.3325392668403041  0.3374126270269477
  0.8324944236159910  0.3291150104891414  0.2164481513669748
  0.8328355773033160  0.5113657164779629  0.2896636872109303
  0.9993520717249009  0.8345991230757707  0.6665279603069179
  0.8329005939903594  0.8335332186340546  0.5843548490671406
  0.6651400064926802  0.8328209195197186  0.4609132701303708
  0.0003989956038999  0.9999063167275596  0.5431107197526751
  0.8330190541081185  0.9999645200568369  0.4205276722178727
  0.6640202939544187  0.6665844065685309  0.8435901210029213
  0.8330379300857662  0.6665832123147309  0.7072337956188486
  0.8278210261087297  0.8335559092661017  0.7893961956450815
  0.9973616086171693  0.8379572437550500  0.1683171704103662
  0.8331098294981506  0.8317775556222021  0.0832894403950088
  0.6699150899646882  0.8308412162637984  0.9609890481383631
  0.9994397236507629  0.0015093857080221  0.0430292151701341
  0.8333029230664464  0.9981720412751861  0.9170596706325213
  0.6652423680302970  0.6699660564450943  0.3358705372542454
  0.8327892764814223  0.6595431849113549  0.2014238744004312
  0.8327162022051722  0.8302924815576448  0.2848352327238237
  0.1860550943948936  0.6665781261369084  0.8048408624021848
  0.8331035571892846  0.3521038672316626  0.3231126400152882
 
  0.00000000E+00  0.00000000E+00  0.00000000E+00
  0.00000000E+00  0.00000000E+00  0.00000000E+00
  0.00000000E+00  0.00000000E+00  0.00000000E+00
  0.00000000E+00  0.00000000E+00  0.00000000E+00
  0.00000000E+00  0.00000000E+00  0.00000000E+00
  0.00000000E+00  0.00000000E+00  0.00000000E+00
  0.00000000E+00  0.00000000E+00  0.00000000E+00
  0.00000000E+00  0.00000000E+00  0.00000000E+00
  0.00000000E+00  0.00000000E+00  0.00000000E+00
  0.00000000E+00  0.00000000E+00  0.00000000E+00
  0.00000000E+00  0.00000000E+00  0.00000000E+00
  0.00000000E+00  0.00000000E+00  0.00000000E+00
  0.00000000E+00  0.00000000E+00  0.00000000E+00
  0.00000000E+00  0.00000000E+00  0.00000000E+00
  0.00000000E+00  0.00000000E+00  0.00000000E+00
  0.00000000E+00  0.00000000E+00  0.00000000E+00
  0.00000000E+00  0.00000000E+00  0.00000000E+00
  0.00000000E+00  0.00000000E+00  0.00000000E+00
  0.00000000E+00  0.00000000E+00  0.00000000E+00
  0.00000000E+00  0.00000000E+00  0.00000000E+00
  0.00000000E+00  0.00000000E+00  0.00000000E+00
  0.00000000E+00  0.00000000E+00  0.00000000E+00
  0.00000000E+00  0.00000000E+00  0.00000000E+00
  0.00000000E+00  0.00000000E+00  0.00000000E+00
  0.00000000E+00  0.00000000E+00  0.00000000E+00
  0.00000000E+00  0.00000000E+00  0.00000000E+00
  0.00000000E+00  0.00000000E+00  0.00000000E+00
  0.00000000E+00  0.00000000E+00  0.00000000E+00
  0.00000000E+00  0.00000000E+00  0.00000000E+00
  0.00000000E+00  0.00000000E+00  0.00000000E+00
  0.00000000E+00  0.00000000E+00  0.00000000E+00
  0.00000000E+00  0.00000000E+00  0.00000000E+00
  0.00000000E+00  0.00000000E+00  0.00000000E+00
  0.00000000E+00  0.00000000E+00  0.00000000E+00
  0.00000000E+00  0.00000000E+00  0.00000000E+00
  0.00000000E+00  0.00000000E+00  0.00000000E+00
  0.00000000E+00  0.00000000E+00  0.00000000E+00
  0.00000000E+00  0.00000000E+00  0.00000000E+00
  0.00000000E+00  0.00000000E+00  0.00000000E+00
  0.00000000E+00  0.00000000E+00  0.00000000E+00
  0.00000000E+00  0.00000000E+00  0.00000000E+00
  0.00000000E+00  0.00000000E+00  0.00000000E+00
  0.00000000E+00  0.00000000E+00  0.00000000E+00
  0.00000000E+00  0.00000000E+00  0.00000000E+00
  0.00000000E+00  0.00000000E+00  0.00000000E+00
  0.00000000E+00  0.00000000E+00  0.00000000E+00
  0.00000000E+00  0.00000000E+00  0.00000000E+00
  0.00000000E+00  0.00000000E+00  0.00000000E+00
  0.00000000E+00  0.00000000E+00  0.00000000E+00
  0.00000000E+00  0.00000000E+00  0.00000000E+00
  0.00000000E+00  0.00000000E+00  0.00000000E+00
  0.00000000E+00  0.00000000E+00  0.00000000E+00
  0.00000000E+00  0.00000000E+00  0.00000000E+00
  0.00000000E+00  0.00000000E+00  0.00000000E+00
  0.00000000E+00  0.00000000E+00  0.00000000E+00
  0.00000000E+00  0.00000000E+00  0.00000000E+00
  0.00000000E+00  0.00000000E+00  0.00000000E+00
  0.00000000E+00  0.00000000E+00  0.00000000E+00
  0.00000000E+00  0.00000000E+00  0.00000000E+00
  0.00000000E+00  0.00000000E+00  0.00000000E+00
  0.00000000E+00  0.00000000E+00  0.00000000E+00
  0.00000000E+00  0.00000000E+00  0.00000000E+00
  0.00000000E+00  0.00000000E+00  0.00000000E+00
  0.00000000E+00  0.00000000E+00  0.00000000E+00
  0.00000000E+00  0.00000000E+00  0.00000000E+00
  0.00000000E+00  0.00000000E+00  0.00000000E+00
  0.00000000E+00  0.00000000E+00  0.00000000E+00
  0.00000000E+00  0.00000000E+00  0.00000000E+00
  0.00000000E+00  0.00000000E+00  0.00000000E+00
  0.00000000E+00  0.00000000E+00  0.00000000E+00
  0.00000000E+00  0.00000000E+00  0.00000000E+00
  0.00000000E+00  0.00000000E+00  0.00000000E+00
  0.00000000E+00  0.00000000E+00  0.00000000E+00
  0.00000000E+00  0.00000000E+00  0.00000000E+00
  0.00000000E+00  0.00000000E+00  0.00000000E+00
  0.00000000E+00  0.00000000E+00  0.00000000E+00
  0.00000000E+00  0.00000000E+00  0.00000000E+00
  0.00000000E+00  0.00000000E+00  0.00000000E+00
  0.00000000E+00  0.00000000E+00  0.00000000E+00
  0.00000000E+00  0.00000000E+00  0.00000000E+00
  0.00000000E+00  0.00000000E+00  0.00000000E+00
  0.00000000E+00  0.00000000E+00  0.00000000E+00
  0.00000000E+00  0.00000000E+00  0.00000000E+00
  0.00000000E+00  0.00000000E+00  0.00000000E+00
  0.00000000E+00  0.00000000E+00  0.00000000E+00
  0.00000000E+00  0.00000000E+00  0.00000000E+00
  0.00000000E+00  0.00000000E+00  0.00000000E+00
  0.00000000E+00  0.00000000E+00  0.00000000E+00
  0.00000000E+00  0.00000000E+00  0.00000000E+00
  0.00000000E+00  0.00000000E+00  0.00000000E+00
  0.00000000E+00  0.00000000E+00  0.00000000E+00
  0.00000000E+00  0.00000000E+00  0.00000000E+00
  0.00000000E+00  0.00000000E+00  0.00000000E+00
  0.00000000E+00  0.00000000E+00  0.00000000E+00
  0.00000000E+00  0.00000000E+00  0.00000000E+00
  0.00000000E+00  0.00000000E+00  0.00000000E+00
  0.00000000E+00  0.00000000E+00  0.00000000E+00
  0.00000000E+00  0.00000000E+00  0.00000000E+00
  0.00000000E+00  0.00000000E+00  0.00000000E+00
  0.00000000E+00  0.00000000E+00  0.00000000E+00
  0.00000000E+00  0.00000000E+00  0.00000000E+00
  0.00000000E+00  0.00000000E+00  0.00000000E+00
  0.00000000E+00  0.00000000E+00  0.00000000E+00
  0.00000000E+00  0.00000000E+00  0.00000000E+00
  0.00000000E+00  0.00000000E+00  0.00000000E+00
  0.00000000E+00  0.00000000E+00  0.00000000E+00
  0.00000000E+00  0.00000000E+00  0.00000000E+00
  0.00000000E+00  0.00000000E+00  0.00000000E+00
  0.00000000E+00  0.00000000E+00  0.00000000E+00
  0.00000000E+00  0.00000000E+00  0.00000000E+00
  0.00000000E+00  0.00000000E+00  0.00000000E+00
  0.00000000E+00  0.00000000E+00  0.00000000E+00
  0.00000000E+00  0.00000000E+00  0.00000000E+00
  0.00000000E+00  0.00000000E+00  0.00000000E+00
  0.00000000E+00  0.00000000E+00  0.00000000E+00
  0.00000000E+00  0.00000000E+00  0.00000000E+00
  0.00000000E+00  0.00000000E+00  0.00000000E+00
  0.00000000E+00  0.00000000E+00  0.00000000E+00
  0.00000000E+00  0.00000000E+00  0.00000000E+00
  0.00000000E+00  0.00000000E+00  0.00000000E+00
  0.00000000E+00  0.00000000E+00  0.00000000E+00
  0.00000000E+00  0.00000000E+00  0.00000000E+00
  0.00000000E+00  0.00000000E+00  0.00000000E+00
  0.00000000E+00  0.00000000E+00  0.00000000E+00
  0.00000000E+00  0.00000000E+00  0.00000000E+00
  0.00000000E+00  0.00000000E+00  0.00000000E+00
  0.00000000E+00  0.00000000E+00  0.00000000E+00
  0.00000000E+00  0.00000000E+00  0.00000000E+00
  0.00000000E+00  0.00000000E+00  0.00000000E+00
  0.00000000E+00  0.00000000E+00  0.00000000E+00
  0.00000000E+00  0.00000000E+00  0.00000000E+00
  0.00000000E+00  0.00000000E+00  0.00000000E+00
  0.00000000E+00  0.00000000E+00  0.00000000E+00
  0.00000000E+00  0.00000000E+00  0.00000000E+00
  0.00000000E+00  0.00000000E+00  0.00000000E+00
  0.00000000E+00  0.00000000E+00  0.00000000E+00
  0.00000000E+00  0.00000000E+00  0.00000000E+00
  0.00000000E+00  0.00000000E+00  0.00000000E+00
  0.00000000E+00  0.00000000E+00  0.00000000E+00
  0.00000000E+00  0.00000000E+00  0.00000000E+00
  0.00000000E+00  0.00000000E+00  0.00000000E+00
  0.00000000E+00  0.00000000E+00  0.00000000E+00
  0.00000000E+00  0.00000000E+00  0.00000000E+00
  0.00000000E+00  0.00000000E+00  0.00000000E+00
  0.00000000E+00  0.00000000E+00  0.00000000E+00
  0.00000000E+00  0.00000000E+00  0.00000000E+00
  0.00000000E+00  0.00000000E+00  0.00000000E+00
  0.00000000E+00  0.00000000E+00  0.00000000E+00
  0.00000000E+00  0.00000000E+00  0.00000000E+00
  0.00000000E+00  0.00000000E+00  0.00000000E+00
  0.00000000E+00  0.00000000E+00  0.00000000E+00
  0.00000000E+00  0.00000000E+00  0.00000000E+00
  0.00000000E+00  0.00000000E+00  0.00000000E+00
  0.00000000E+00  0.00000000E+00  0.00000000E+00
  0.00000000E+00  0.00000000E+00  0.00000000E+00
  0.00000000E+00  0.00000000E+00  0.00000000E+00
  0.00000000E+00  0.00000000E+00  0.00000000E+00
  0.00000000E+00  0.00000000E+00  0.00000000E+00
  0.00000000E+00  0.00000000E+00  0.00000000E+00
  0.00000000E+00  0.00000000E+00  0.00000000E+00
  0.00000000E+00  0.00000000E+00  0.00000000E+00
  0.00000000E+00  0.00000000E+00  0.00000000E+00
  0.00000000E+00  0.00000000E+00  0.00000000E+00
  0.00000000E+00  0.00000000E+00  0.00000000E+00
  0.00000000E+00  0.00000000E+00  0.00000000E+00
  0.00000000E+00  0.00000000E+00  0.00000000E+00
  0.00000000E+00  0.00000000E+00  0.00000000E+00
  0.00000000E+00  0.00000000E+00  0.00000000E+00
  0.00000000E+00  0.00000000E+00  0.00000000E+00
  0.00000000E+00  0.00000000E+00  0.00000000E+00
  0.00000000E+00  0.00000000E+00  0.00000000E+00
  0.00000000E+00  0.00000000E+00  0.00000000E+00
  0.00000000E+00  0.00000000E+00  0.00000000E+00
  0.00000000E+00  0.00000000E+00  0.00000000E+00
  0.00000000E+00  0.00000000E+00  0.00000000E+00
  0.00000000E+00  0.00000000E+00  0.00000000E+00
  0.00000000E+00  0.00000000E+00  0.00000000E+00
  0.00000000E+00  0.00000000E+00  0.00000000E+00
  0.00000000E+00  0.00000000E+00  0.00000000E+00
  0.00000000E+00  0.00000000E+00  0.00000000E+00
  0.00000000E+00  0.00000000E+00  0.00000000E+00
  0.00000000E+00  0.00000000E+00  0.00000000E+00
  0.00000000E+00  0.00000000E+00  0.00000000E+00
  0.00000000E+00  0.00000000E+00  0.00000000E+00
  0.00000000E+00  0.00000000E+00  0.00000000E+00
  0.00000000E+00  0.00000000E+00  0.00000000E+00
  0.00000000E+00  0.00000000E+00  0.00000000E+00
  0.00000000E+00  0.00000000E+00  0.00000000E+00
  0.00000000E+00  0.00000000E+00  0.00000000E+00
  0.00000000E+00  0.00000000E+00  0.00000000E+00
  0.00000000E+00  0.00000000E+00  0.00000000E+00
  0.00000000E+00  0.00000000E+00  0.00000000E+00
  0.00000000E+00  0.00000000E+00  0.00000000E+00
  0.00000000E+00  0.00000000E+00  0.00000000E+00
  0.00000000E+00  0.00000000E+00  0.00000000E+00
  0.00000000E+00  0.00000000E+00  0.00000000E+00
  0.00000000E+00  0.00000000E+00  0.00000000E+00
  0.00000000E+00  0.00000000E+00  0.00000000E+00
  0.00000000E+00  0.00000000E+00  0.00000000E+00
  0.00000000E+00  0.00000000E+00  0.00000000E+00
  0.00000000E+00  0.00000000E+00  0.00000000E+00
  0.00000000E+00  0.00000000E+00  0.00000000E+00
  0.00000000E+00  0.00000000E+00  0.00000000E+00
  0.00000000E+00  0.00000000E+00  0.00000000E+00
  0.00000000E+00  0.00000000E+00  0.00000000E+00
  0.00000000E+00  0.00000000E+00  0.00000000E+00
  0.00000000E+00  0.00000000E+00  0.00000000E+00
  0.00000000E+00  0.00000000E+00  0.00000000E+00
  0.00000000E+00  0.00000000E+00  0.00000000E+00
  0.00000000E+00  0.00000000E+00  0.00000000E+00
  0.00000000E+00  0.00000000E+00  0.00000000E+00
  0.00000000E+00  0.00000000E+00  0.00000000E+00
  0.00000000E+00  0.00000000E+00  0.00000000E+00
  0.00000000E+00  0.00000000E+00  0.00000000E+00
