Ti4 O8                                  
   1.00000000000000     
    11.5607959665632993    0.0000000000000000    0.0000000000000000
     0.0000000000000000   11.5607959665632993    0.0000000000000000
     0.0000000000000000    0.0000000000000000   19.2862138499999993
   Ti   O    Co
    71   143     1
Direct
  0.9996023000390792  0.1664714752099812  0.5646614844057396
  0.3333619965128136  0.3519003968155090  0.4303912124233662
  0.1666245228985446  0.0002281402128830  0.8148587261598408
  0.1639539103979359  0.1685523754015819  0.6915661225952334
  0.9994390606151669  0.1671431715519631  0.0636302079698439
  0.3333177788462436  0.3340078719652340  0.9391908208401034
  0.1643391431735992  0.0021929641312894  0.3122204131829278
  0.1667003105897962  0.1674326583920731  0.1876861414677649
  0.0034714479197007  0.4992682692248920  0.5660693691168888
  0.3333085572290457  0.6571741228700247  0.4373415285058044
  0.1662987363225099  0.3351367536681238  0.8152276711640098
  0.1681982268270019  0.5007788317513047  0.6897637725409993
  0.9997007951140446  0.5008155251010251  0.0636608435974821
  0.3332933874528408  0.6673848749332691  0.9389988066160271
  0.1619533923073675  0.3345880927869018  0.3119530087689171
  0.1665624341739687  0.5007757228326355  0.1879464526539749
  0.9997430126460145  0.8328112568618309  0.5633450436531575
  0.3333438252084733  0.9751054681068183  0.4318793293122596
  0.1664657598825627  0.6665548475184337  0.8146329216493129
  0.1628835221745319  0.8341665224583323  0.6901811747779476
  0.9999122982973745  0.8338708328515310  0.0639627797912681
  0.3333291963689149  0.0002939641228465  0.9392378930587384
  0.1653414961240358  0.6676960221804933  0.3133764123600287
  0.1666781501725865  0.8330709964872156  0.1885613153047601
  0.3333081713135613  0.1452206690005795  0.5710630369516494
  0.6672013687421838  0.3351925051143922  0.4391792527430383
  0.4999884366840419  0.0002202092403536  0.8148447672187658
  0.5027673463254345  0.1685064146951731  0.6915653381340974
  0.3332992778505215  0.1672573861046658  0.0634763642389444
  0.6672166469022187  0.3339092969306066  0.9393507597292654
  0.5023871755718758  0.0022180306934203  0.3122304410109393
  0.5000414636886603  0.1674216724449167  0.1876818900451767
  0.6668256460337290  0.6653593662556858  0.4395228478805677
  0.5003290738793140  0.3351325405149126  0.8152164213225817
  0.4985954368814944  0.5007434005785711  0.6897602421709124
  0.3333321958518525  0.5007984124690239  0.0636371840352510
  0.6669096566697945  0.6674711077893818  0.9390927917899958
  0.5046662003034541  0.3345868739848328  0.3119444427161042
  0.5001127704450639  0.5007875683019023  0.1879563020659774
  0.3333476895456826  0.8304039265805656  0.5680949410442793
  0.6665307901440727  0.0018176685531799  0.4393043709256688
  0.5001719945859335  0.6665458673760583  0.8146328005860966
  0.5038194715509619  0.8341148342184752  0.6901780841826834
  0.3333283010657979  0.8338272407147826  0.0639286022679002
  0.6668512119740058  0.0003640798851876  0.9391908774318836
  0.5014018926889889  0.6677086852300320  0.3133766407362870
  0.4999770632931018  0.8330886711022814  0.1885737536223715
  0.6670151847442582  0.1664907011526182  0.5646598929841815
  0.9994870629665726  0.3351646743417973  0.4391874784283303
  0.8333278775455426  0.0003693815405086  0.8143356708351206
  0.8333527988640412  0.1678692766216798  0.6906839827152709
  0.6671546182043855  0.1671612829599312  0.0636112211307491
  0.9993982944715682  0.3339201896813719  0.9393674369709686
  0.8333787810437556  0.0000954191278097  0.3136653240595990
  0.8333497965790926  0.1668127398778694  0.1886577229894471
  0.6631966126114719  0.4992811361148455  0.5660562745296787
  0.9997911413090748  0.6653149373222220  0.4395256797031664
  0.8333312983694583  0.3361292702065057  0.8142441241258922
  0.8333782698049745  0.5010305234564925  0.6877536770481427
  0.6669177201886072  0.5008316736285678  0.0636463841990249
  0.9996921479081848  0.6674730573611782  0.9391091844016302
  0.8333180859980587  0.3337112457633111  0.3127379500721617
  0.8333244456327691  0.5012216873584023  0.1886197513258523
  0.6669545517473381  0.8328234895262057  0.5633429836169555
  0.0001670340157744  0.0017746728278709  0.4393083805039524
  0.8333335803228081  0.6660396936574031  0.8142464550479573
  0.8333508948012209  0.8337833557210672  0.6898699820377558
  0.6667065001732198  0.8338790749652247  0.0639537364694363
  0.9997740086119720  0.0003768890506208  0.9392069410127846
  0.8333692001044497  0.6672962137247822  0.3139462373718160
  0.8333151201966373  0.8337919560471292  0.1886588187547886
  0.3333303523438644  0.1669364267863074  0.6708405625904064
  0.1661936635527113  0.1617804035191952  0.5887822733034795
  0.0012263501588805  0.1674854974441757  0.4606337782518892
  0.3333649431565107  0.2360339637552187  0.4950824516597621
  0.1647463286539548  0.3387432678701146  0.4139203596750605
  0.9998493619177538  0.0001250294122883  0.8362728344900106
  0.1655405851710867  0.0001378471522600  0.7118715369683173
  0.1659911391224469  0.1669225480708860  0.7940551558709501
  0.3333232782854836  0.1667201453982159  0.1670590369073039
  0.1666440908923690  0.1670959236159533  0.0852250030439450
  0.9998048444375058  0.1671179069331714  0.9608310680365051
  0.3333554466222637  0.3339014428060523  0.0425400662701705
  0.1665483815249686  0.3339770148736889  0.9182065243890207
  0.0000755641746082  0.0000783100001058  0.3355268718112043
  0.1659173428263756  0.0003975325088561  0.2101166230810989
  0.1656208426940253  0.1672431787678050  0.2914472530276129
  0.3333484793746138  0.5008801061357815  0.6751156444592041
  0.1641394732066317  0.5001457557064057  0.5879322646770575
  0.9986591127526907  0.5001556601838217  0.4608213837029922
  0.3333809538919326  0.6794778485375730  0.5390987339078777
  0.1667056399465778  0.6619307810174604  0.4166611526880146
  0.9996642354563221  0.3337765738341574  0.8364821598799566
  0.1650649191798053  0.3333982679381364  0.7121464078984019
  0.1655391377750561  0.5006458529853504  0.7943516407617750
  0.3333306574269557  0.5005853670467530  0.1670143168839502
  0.1665725974624976  0.5008941421773869  0.0851119973667238
  0.9998247887247587  0.5007219206260984  0.9608001289116999
  0.3333472531671902  0.6673479176576151  0.0425331227914967
  0.1666157852294674  0.6674997805438423  0.9179364382078461
  0.9985016412853227  0.3327073540479262  0.3341563108022569
  0.1657878875708363  0.3336839064416210  0.2088725695192437
  0.1642188895237169  0.5004024304927341  0.2909554372637757
  0.3333437274611697  0.8330212624901208  0.6667623331982497
  0.1654751168955002  0.8376569894441133  0.5862465549723836
  0.0022296998450102  0.8341047487844904  0.4606252441557999
  0.3333561951205226  0.9983714054988369  0.5340648238963226
  0.1687847732488805  0.0046588973091772  0.4164695492802934
  0.9998134909238132  0.6678842590768568  0.8362935617828953
  0.1654204115150861  0.6679034276330356  0.7116340343284691
  0.1665182099491886  0.8339277569898513  0.7930553437612460
  0.3333278050837336  0.8340821959213827  0.1673406061860589
  0.1666812666849964  0.8337965911235301  0.0856573113169290
  0.9998287599736244  0.8339658077253063  0.9609285486525536
  0.3333590517977143  0.0004668243382824  0.0425366312996971
  0.1665992317648488  0.0002734198610668  0.9180841303862479
  0.9997014214189477  0.6675336981755180  0.3356517283765825
  0.1668272084316271  0.6672895990993339  0.2099929117274328
  0.1659706216302439  0.8331633617716818  0.2921862925178687
  0.6677185814382156  0.1682246840461445  0.6683408818768584
  0.5004688688414660  0.1618105930808866  0.5887847566759206
  0.6649730929053206  0.3328988229695113  0.5420883579686517
  0.5019657624749740  0.3387454223393931  0.4139273698729440
  0.3333216387411255  0.0002430388686108  0.8362630876357429
  0.5011150549362924  0.0001361684828041  0.7118660454868220
  0.5006601249523470  0.1669121638063089  0.7940548977422921
  0.6668940374165615  0.1667025255470378  0.1669872353710744
  0.5000113981479615  0.1670799145893440  0.0852300087715676
  0.3333220604507616  0.1671583948406337  0.9607840412594797
  0.6668265836068485  0.3338975986587016  0.0425978489005772
  0.5000926295652448  0.3339883782564925  0.9181929131636437
  0.3333446997093006  0.9978207443020679  0.3323051733361666
  0.5007199560212712  0.0004057551744268  0.2101187212195867
  0.5010755599786236  0.1672408317553362  0.2914524472681208
  0.6671506002484762  0.5006831563441665  0.6688460786404349
  0.5025402823437162  0.5001315751363506  0.5879311541057106
  0.3333668241345009  0.4976794398924085  0.4660830376616545
  0.6658449579762760  0.6675824131288479  0.5422741554372621
  0.4999946953620196  0.6619558131962435  0.4166514037298228
  0.3333202391852623  0.3340382377493682  0.8363466728619073
  0.5016231557118616  0.3333939150870648  0.7121444791126521
  0.5010921497069845  0.5006432758558290  0.7943503262880469
  0.6668615981692341  0.5010784065763190  0.1669790851842947
  0.5000735595702608  0.5008851701171366  0.0851117669293089
  0.3333443963727802  0.5006833472658911  0.9607477182233239
  0.6667782050350084  0.6674223310239356  0.0425568673083276
  0.5000297607424855  0.6674918909936665  0.9179122864783409
  0.3333656994792236  0.3350748664723611  0.3320516217238847
  0.5008400890605174  0.3336821140235102  0.2088791668714123
  0.5024977301459401  0.5004075125419476  0.2909592965656600
  0.6671318618993709  0.8333916415062177  0.6679180990341962
  0.5012223468873529  0.8376495237547275  0.5862548744710736
  0.3333787470498990  0.8271393890199548  0.4511389529199761
  0.6679360378861574  0.0011143721625828  0.5418105437385492
  0.4979006322764121  0.0046941545858630  0.4164689730183326
  0.3333114340651733  0.6673053488064227  0.8361540758540897
  0.5012970038999001  0.6678922745281852  0.7116254054164983
  0.5000846350452903  0.8339198788433961  0.7930474652012052
  0.6666870292169165  0.8336558852437079  0.1672890764187187
  0.4999692933421755  0.8338214513489461  0.0856628806819302
  0.3333349412494044  0.8338829259025857  0.9608921606977106
  0.6667083286426916  0.0004668999695596  0.0425664415019256
  0.5000355836957127  0.0002714626354745  0.9180754899934414
  0.3333460582539374  0.6631428059338305  0.3349374157544673
  0.4998077332376312  0.6672911303724405  0.2099902645367919
  0.5007096716870905  0.8331734739212280  0.2921857692540044
  0.9989396157104267  0.1682429330769040  0.6683306136235529
  0.8333235356606750  0.1671443523415022  0.5860835992972468
  0.6655159511858386  0.1674923529008652  0.4606309285994854
  0.0016805081941271  0.3328896679550581  0.5420921278055530
  0.8333557337087498  0.3338857812611806  0.4167312485630532
  0.6667929048890286  0.0001027903123116  0.8362621486428594
  0.8333725314573854  0.0004510604014598  0.7111570451884504
  0.8333412016186657  0.1670319638204134  0.7928530242931018
  0.9997421450258699  0.1666959748941679  0.1669772296196754
  0.8333089816972006  0.1670424302184870  0.0852769189282228
  0.6668089342872463  0.1671242808161395  0.9608186472345110
  0.9997656570678970  0.3339028605694097  0.0426053783403262
  0.8333185490780366  0.3340586152350227  0.9182294855405928
  0.6666221056040769  0.0000838068378357  0.3355267363507082
  0.8333483145145593  0.0001290753641072  0.2104554744427602
  0.8333868028631670  0.1664308234456016  0.2916962534046093
  0.9995213321983911  0.5006786086212998  0.6688466205500632
  0.8333434193917384  0.5002206780924539  0.5872937996230476
  0.6679852780488034  0.5001669536766613  0.4608171620894908
  0.0008133424716235  0.6675737683599365  0.5422776043343376
  0.8333448969878674  0.6673658379142182  0.4174178045294425
  0.6669810122903996  0.3337617758248541  0.8364687668319206
  0.8333617968702427  0.3342369419147531  0.7117724755204975
  0.8333572163730381  0.5008578414642813  0.7939779999949508
  0.9997700999502754  0.5010821517041890  0.1669781275960958
  0.8333143999805799  0.5008302863765053  0.0853985230529588
  0.6667777602705911  0.5007284885998686  0.9607954500141034
  0.9998195363999329  0.6674180025703507  0.0425578787386272
  0.8333162949211328  0.6673755569591719  0.9179604019651180
  0.6681858336066142  0.3326939578687913  0.3341627309087443
  0.8333255141570461  0.3337656419590616  0.2101021564128942
  0.8333820138533810  0.5007331923716691  0.2918931185385176
  0.9995596473363264  0.8333996605050800  0.6679016724611273
  0.8333357998994657  0.8338690222504894  0.5859524325219851
  0.6645025037712387  0.8341192314959756  0.4606256186364988
  0.9986579986447595  0.0011014444942461  0.5418126640290950
  0.8333561719993199  0.0010928904274436  0.4172198891167866
  0.6668388932394436  0.6678906698796965  0.8362760323081488
  0.8333526979322201  0.6673944826658058  0.7114442452410188
  0.8333673959467376  0.8340812108886126  0.7926197097060452
  0.9999518586020741  0.8336507642820763  0.1672791844648813
  0.8333112296614757  0.8339798056341436  0.0856893240269443
  0.6667799052003716  0.8339566585330402  0.9609196015765775
  0.9998849446050855  0.0004674705713157  0.0425834016039488
  0.8333218093446533  0.0005300793017256  0.9178413510233838
  0.6669955592711858  0.6675633727305268  0.3356436652750361
  0.8333152435213762  0.6673562513846036  0.2105969244209263
  0.8333903548673831  0.8339595444493142  0.2922231962745059
  0.3333291039245907  0.5211858258476667  0.5735122025197512
 
  0.00000000E+00  0.00000000E+00  0.00000000E+00
  0.00000000E+00  0.00000000E+00  0.00000000E+00
  0.00000000E+00  0.00000000E+00  0.00000000E+00
  0.00000000E+00  0.00000000E+00  0.00000000E+00
  0.00000000E+00  0.00000000E+00  0.00000000E+00
  0.00000000E+00  0.00000000E+00  0.00000000E+00
  0.00000000E+00  0.00000000E+00  0.00000000E+00
  0.00000000E+00  0.00000000E+00  0.00000000E+00
  0.00000000E+00  0.00000000E+00  0.00000000E+00
  0.00000000E+00  0.00000000E+00  0.00000000E+00
  0.00000000E+00  0.00000000E+00  0.00000000E+00
  0.00000000E+00  0.00000000E+00  0.00000000E+00
  0.00000000E+00  0.00000000E+00  0.00000000E+00
  0.00000000E+00  0.00000000E+00  0.00000000E+00
  0.00000000E+00  0.00000000E+00  0.00000000E+00
  0.00000000E+00  0.00000000E+00  0.00000000E+00
  0.00000000E+00  0.00000000E+00  0.00000000E+00
  0.00000000E+00  0.00000000E+00  0.00000000E+00
  0.00000000E+00  0.00000000E+00  0.00000000E+00
  0.00000000E+00  0.00000000E+00  0.00000000E+00
  0.00000000E+00  0.00000000E+00  0.00000000E+00
  0.00000000E+00  0.00000000E+00  0.00000000E+00
  0.00000000E+00  0.00000000E+00  0.00000000E+00
  0.00000000E+00  0.00000000E+00  0.00000000E+00
  0.00000000E+00  0.00000000E+00  0.00000000E+00
  0.00000000E+00  0.00000000E+00  0.00000000E+00
  0.00000000E+00  0.00000000E+00  0.00000000E+00
  0.00000000E+00  0.00000000E+00  0.00000000E+00
  0.00000000E+00  0.00000000E+00  0.00000000E+00
  0.00000000E+00  0.00000000E+00  0.00000000E+00
  0.00000000E+00  0.00000000E+00  0.00000000E+00
  0.00000000E+00  0.00000000E+00  0.00000000E+00
  0.00000000E+00  0.00000000E+00  0.00000000E+00
  0.00000000E+00  0.00000000E+00  0.00000000E+00
  0.00000000E+00  0.00000000E+00  0.00000000E+00
  0.00000000E+00  0.00000000E+00  0.00000000E+00
  0.00000000E+00  0.00000000E+00  0.00000000E+00
  0.00000000E+00  0.00000000E+00  0.00000000E+00
  0.00000000E+00  0.00000000E+00  0.00000000E+00
  0.00000000E+00  0.00000000E+00  0.00000000E+00
  0.00000000E+00  0.00000000E+00  0.00000000E+00
  0.00000000E+00  0.00000000E+00  0.00000000E+00
  0.00000000E+00  0.00000000E+00  0.00000000E+00
  0.00000000E+00  0.00000000E+00  0.00000000E+00
  0.00000000E+00  0.00000000E+00  0.00000000E+00
  0.00000000E+00  0.00000000E+00  0.00000000E+00
  0.00000000E+00  0.00000000E+00  0.00000000E+00
  0.00000000E+00  0.00000000E+00  0.00000000E+00
  0.00000000E+00  0.00000000E+00  0.00000000E+00
  0.00000000E+00  0.00000000E+00  0.00000000E+00
  0.00000000E+00  0.00000000E+00  0.00000000E+00
  0.00000000E+00  0.00000000E+00  0.00000000E+00
  0.00000000E+00  0.00000000E+00  0.00000000E+00
  0.00000000E+00  0.00000000E+00  0.00000000E+00
  0.00000000E+00  0.00000000E+00  0.00000000E+00
  0.00000000E+00  0.00000000E+00  0.00000000E+00
  0.00000000E+00  0.00000000E+00  0.00000000E+00
  0.00000000E+00  0.00000000E+00  0.00000000E+00
  0.00000000E+00  0.00000000E+00  0.00000000E+00
  0.00000000E+00  0.00000000E+00  0.00000000E+00
  0.00000000E+00  0.00000000E+00  0.00000000E+00
  0.00000000E+00  0.00000000E+00  0.00000000E+00
  0.00000000E+00  0.00000000E+00  0.00000000E+00
  0.00000000E+00  0.00000000E+00  0.00000000E+00
  0.00000000E+00  0.00000000E+00  0.00000000E+00
  0.00000000E+00  0.00000000E+00  0.00000000E+00
  0.00000000E+00  0.00000000E+00  0.00000000E+00
  0.00000000E+00  0.00000000E+00  0.00000000E+00
  0.00000000E+00  0.00000000E+00  0.00000000E+00
  0.00000000E+00  0.00000000E+00  0.00000000E+00
  0.00000000E+00  0.00000000E+00  0.00000000E+00
  0.00000000E+00  0.00000000E+00  0.00000000E+00
  0.00000000E+00  0.00000000E+00  0.00000000E+00
  0.00000000E+00  0.00000000E+00  0.00000000E+00
  0.00000000E+00  0.00000000E+00  0.00000000E+00
  0.00000000E+00  0.00000000E+00  0.00000000E+00
  0.00000000E+00  0.00000000E+00  0.00000000E+00
  0.00000000E+00  0.00000000E+00  0.00000000E+00
  0.00000000E+00  0.00000000E+00  0.00000000E+00
  0.00000000E+00  0.00000000E+00  0.00000000E+00
  0.00000000E+00  0.00000000E+00  0.00000000E+00
  0.00000000E+00  0.00000000E+00  0.00000000E+00
  0.00000000E+00  0.00000000E+00  0.00000000E+00
  0.00000000E+00  0.00000000E+00  0.00000000E+00
  0.00000000E+00  0.00000000E+00  0.00000000E+00
  0.00000000E+00  0.00000000E+00  0.00000000E+00
  0.00000000E+00  0.00000000E+00  0.00000000E+00
  0.00000000E+00  0.00000000E+00  0.00000000E+00
  0.00000000E+00  0.00000000E+00  0.00000000E+00
  0.00000000E+00  0.00000000E+00  0.00000000E+00
  0.00000000E+00  0.00000000E+00  0.00000000E+00
  0.00000000E+00  0.00000000E+00  0.00000000E+00
  0.00000000E+00  0.00000000E+00  0.00000000E+00
  0.00000000E+00  0.00000000E+00  0.00000000E+00
  0.00000000E+00  0.00000000E+00  0.00000000E+00
  0.00000000E+00  0.00000000E+00  0.00000000E+00
  0.00000000E+00  0.00000000E+00  0.00000000E+00
  0.00000000E+00  0.00000000E+00  0.00000000E+00
  0.00000000E+00  0.00000000E+00  0.00000000E+00
  0.00000000E+00  0.00000000E+00  0.00000000E+00
  0.00000000E+00  0.00000000E+00  0.00000000E+00
  0.00000000E+00  0.00000000E+00  0.00000000E+00
  0.00000000E+00  0.00000000E+00  0.00000000E+00
  0.00000000E+00  0.00000000E+00  0.00000000E+00
  0.00000000E+00  0.00000000E+00  0.00000000E+00
  0.00000000E+00  0.00000000E+00  0.00000000E+00
  0.00000000E+00  0.00000000E+00  0.00000000E+00
  0.00000000E+00  0.00000000E+00  0.00000000E+00
  0.00000000E+00  0.00000000E+00  0.00000000E+00
  0.00000000E+00  0.00000000E+00  0.00000000E+00
  0.00000000E+00  0.00000000E+00  0.00000000E+00
  0.00000000E+00  0.00000000E+00  0.00000000E+00
  0.00000000E+00  0.00000000E+00  0.00000000E+00
  0.00000000E+00  0.00000000E+00  0.00000000E+00
  0.00000000E+00  0.00000000E+00  0.00000000E+00
  0.00000000E+00  0.00000000E+00  0.00000000E+00
  0.00000000E+00  0.00000000E+00  0.00000000E+00
  0.00000000E+00  0.00000000E+00  0.00000000E+00
  0.00000000E+00  0.00000000E+00  0.00000000E+00
  0.00000000E+00  0.00000000E+00  0.00000000E+00
  0.00000000E+00  0.00000000E+00  0.00000000E+00
  0.00000000E+00  0.00000000E+00  0.00000000E+00
  0.00000000E+00  0.00000000E+00  0.00000000E+00
  0.00000000E+00  0.00000000E+00  0.00000000E+00
  0.00000000E+00  0.00000000E+00  0.00000000E+00
  0.00000000E+00  0.00000000E+00  0.00000000E+00
  0.00000000E+00  0.00000000E+00  0.00000000E+00
  0.00000000E+00  0.00000000E+00  0.00000000E+00
  0.00000000E+00  0.00000000E+00  0.00000000E+00
  0.00000000E+00  0.00000000E+00  0.00000000E+00
  0.00000000E+00  0.00000000E+00  0.00000000E+00
  0.00000000E+00  0.00000000E+00  0.00000000E+00
  0.00000000E+00  0.00000000E+00  0.00000000E+00
  0.00000000E+00  0.00000000E+00  0.00000000E+00
  0.00000000E+00  0.00000000E+00  0.00000000E+00
  0.00000000E+00  0.00000000E+00  0.00000000E+00
  0.00000000E+00  0.00000000E+00  0.00000000E+00
  0.00000000E+00  0.00000000E+00  0.00000000E+00
  0.00000000E+00  0.00000000E+00  0.00000000E+00
  0.00000000E+00  0.00000000E+00  0.00000000E+00
  0.00000000E+00  0.00000000E+00  0.00000000E+00
  0.00000000E+00  0.00000000E+00  0.00000000E+00
  0.00000000E+00  0.00000000E+00  0.00000000E+00
  0.00000000E+00  0.00000000E+00  0.00000000E+00
  0.00000000E+00  0.00000000E+00  0.00000000E+00
  0.00000000E+00  0.00000000E+00  0.00000000E+00
  0.00000000E+00  0.00000000E+00  0.00000000E+00
  0.00000000E+00  0.00000000E+00  0.00000000E+00
  0.00000000E+00  0.00000000E+00  0.00000000E+00
  0.00000000E+00  0.00000000E+00  0.00000000E+00
  0.00000000E+00  0.00000000E+00  0.00000000E+00
  0.00000000E+00  0.00000000E+00  0.00000000E+00
  0.00000000E+00  0.00000000E+00  0.00000000E+00
  0.00000000E+00  0.00000000E+00  0.00000000E+00
  0.00000000E+00  0.00000000E+00  0.00000000E+00
  0.00000000E+00  0.00000000E+00  0.00000000E+00
  0.00000000E+00  0.00000000E+00  0.00000000E+00
  0.00000000E+00  0.00000000E+00  0.00000000E+00
  0.00000000E+00  0.00000000E+00  0.00000000E+00
  0.00000000E+00  0.00000000E+00  0.00000000E+00
  0.00000000E+00  0.00000000E+00  0.00000000E+00
  0.00000000E+00  0.00000000E+00  0.00000000E+00
  0.00000000E+00  0.00000000E+00  0.00000000E+00
  0.00000000E+00  0.00000000E+00  0.00000000E+00
  0.00000000E+00  0.00000000E+00  0.00000000E+00
  0.00000000E+00  0.00000000E+00  0.00000000E+00
  0.00000000E+00  0.00000000E+00  0.00000000E+00
  0.00000000E+00  0.00000000E+00  0.00000000E+00
  0.00000000E+00  0.00000000E+00  0.00000000E+00
  0.00000000E+00  0.00000000E+00  0.00000000E+00
  0.00000000E+00  0.00000000E+00  0.00000000E+00
  0.00000000E+00  0.00000000E+00  0.00000000E+00
  0.00000000E+00  0.00000000E+00  0.00000000E+00
  0.00000000E+00  0.00000000E+00  0.00000000E+00
  0.00000000E+00  0.00000000E+00  0.00000000E+00
  0.00000000E+00  0.00000000E+00  0.00000000E+00
  0.00000000E+00  0.00000000E+00  0.00000000E+00
  0.00000000E+00  0.00000000E+00  0.00000000E+00
  0.00000000E+00  0.00000000E+00  0.00000000E+00
  0.00000000E+00  0.00000000E+00  0.00000000E+00
  0.00000000E+00  0.00000000E+00  0.00000000E+00
  0.00000000E+00  0.00000000E+00  0.00000000E+00
  0.00000000E+00  0.00000000E+00  0.00000000E+00
  0.00000000E+00  0.00000000E+00  0.00000000E+00
  0.00000000E+00  0.00000000E+00  0.00000000E+00
  0.00000000E+00  0.00000000E+00  0.00000000E+00
  0.00000000E+00  0.00000000E+00  0.00000000E+00
  0.00000000E+00  0.00000000E+00  0.00000000E+00
  0.00000000E+00  0.00000000E+00  0.00000000E+00
  0.00000000E+00  0.00000000E+00  0.00000000E+00
  0.00000000E+00  0.00000000E+00  0.00000000E+00
  0.00000000E+00  0.00000000E+00  0.00000000E+00
  0.00000000E+00  0.00000000E+00  0.00000000E+00
  0.00000000E+00  0.00000000E+00  0.00000000E+00
  0.00000000E+00  0.00000000E+00  0.00000000E+00
  0.00000000E+00  0.00000000E+00  0.00000000E+00
  0.00000000E+00  0.00000000E+00  0.00000000E+00
  0.00000000E+00  0.00000000E+00  0.00000000E+00
  0.00000000E+00  0.00000000E+00  0.00000000E+00
  0.00000000E+00  0.00000000E+00  0.00000000E+00
  0.00000000E+00  0.00000000E+00  0.00000000E+00
  0.00000000E+00  0.00000000E+00  0.00000000E+00
  0.00000000E+00  0.00000000E+00  0.00000000E+00
  0.00000000E+00  0.00000000E+00  0.00000000E+00
  0.00000000E+00  0.00000000E+00  0.00000000E+00
  0.00000000E+00  0.00000000E+00  0.00000000E+00
  0.00000000E+00  0.00000000E+00  0.00000000E+00
  0.00000000E+00  0.00000000E+00  0.00000000E+00
  0.00000000E+00  0.00000000E+00  0.00000000E+00
  0.00000000E+00  0.00000000E+00  0.00000000E+00
  0.00000000E+00  0.00000000E+00  0.00000000E+00
  0.00000000E+00  0.00000000E+00  0.00000000E+00
  0.00000000E+00  0.00000000E+00  0.00000000E+00
  0.00000000E+00  0.00000000E+00  0.00000000E+00
  0.00000000E+00  0.00000000E+00  0.00000000E+00
