Ti4 O8                                  
   1.00000000000000     
    11.5607959665632993    0.0000000000000000    0.0000000000000000
     0.0000000000000000   11.5607959665632993    0.0000000000000000
     0.0000000000000000    0.0000000000000000   19.2862138499999993
   Ti   O    Co
    71   143     1
Direct
  0.0003430424101580  0.1671172407493344  0.5638035379949002
  0.3339712160077255  0.3353387964879673  0.4399029459699051
  0.1663618263743061  0.9999970373010143  0.8134550508587353
  0.1674999107950441  0.1669081278741658  0.6883984884443848
  0.0000343762904080  0.1666365259343578  0.0639268010704583
  0.3321938586400890  0.3332066678034309  0.9397073545784309
  0.1669519249025200  0.0000003908883883  0.3142351539947370
  0.1664077106199215  0.1666508011208521  0.1892404474735301
  0.0080529812511614  0.5000127035699649  0.5638027022536960
  0.3339650715723792  0.6646598792971119  0.4399006993132275
  0.1666454896264753  0.3337819627234637  0.8135255281171609
  0.1751069418561428  0.5000003794342334  0.6873249984592107
  0.0000309412580393  0.4999988604416856  0.0640719102804184
  0.3321891193183788  0.6667896769782473  0.9397079061917992
  0.1675538709515294  0.3332287282567492  0.3142566218771066
  0.1664394975473726  0.5000003756097087  0.1893417047655603
  0.0003297608540080  0.8329085755453463  0.5638035304115263
  0.3329862414654912  0.0000007007709968  0.4399255125652175
  0.1666398221871006  0.6662159511975645  0.8135258065546793
  0.1674876600196669  0.8330883445140813  0.6883961626587549
  0.0000333959727001  0.8333613714847630  0.0639267586546381
  0.3325361961728035  0.9999975224526523  0.9391934180022048
  0.1675426693547237  0.6667716491590951  0.3142580398781902
  0.1664062281141767  0.8333494675989854  0.1892409055832260
  0.3338193058205405  0.1691326044236234  0.5626771663536374
  0.6655486953584244  0.3319547850189011  0.4369803697681718
  0.4998522413545885  0.9999856054767164  0.8150240100276491
  0.4992978351519426  0.1659745328460858  0.6890647558069816
  0.3330525143911416  0.1664544749693277  0.0643155558400323
  0.6670845137450883  0.3332823245690975  0.9399283121415962
  0.4992000728439336  0.9999976701690798  0.3141381429192762
  0.4999089172800453  0.1663797046725151  0.1889121441994632
  0.6655406100332826  0.6680475063439744  0.4369795756947141
  0.4997896422363794  0.3286748955079162  0.8165006766116605
  0.4949589951433637  0.4999884258044816  0.6988981054648988
  0.3330674588966929  0.4999983869412148  0.0643586252525594
  0.6670819599373772  0.6667102436586774  0.9399269598875648
  0.4985690627342905  0.3330648916619339  0.3133407542548952
  0.4998555381332963  0.4999970053331708  0.1889871915897174
  0.3338102141154735  0.8308638366187679  0.5626751731128721
  0.6666198895862863  0.0000007816908933  0.4387663888224225
  0.4997838113329252  0.6712977870597143  0.8165013959643019
  0.4992856637540370  0.8340006791243155  0.6890650657063802
  0.3330516951867324  0.8335419921849905  0.0643163331525543
  0.6670329999479137  0.9999965451182646  0.9392515731917257
  0.4985594655257870  0.6669288332068248  0.3133382769924111
  0.4999075488726774  0.8336177996212939  0.1889119682310678
  0.6657760522570868  0.1667466012392751  0.5640253793448267
  0.0004144244424609  0.3332350936521991  0.4386497502969462
  0.8334358967605624  0.9999961228947924  0.8137709235722141
  0.8329756367745844  0.1667257476993100  0.6883485227344934
  0.6667022053813625  0.1664158617494635  0.0643406886494517
  0.0001183714379707  0.3334843424119853  0.9389158057947355
  0.8334019003759465  0.0000044349511938  0.3140330478467988
  0.8334700688330088  0.1665831966454334  0.1890193425721307
  0.6854768497051253  0.4999996563722817  0.5591277519096778
  0.0004018435045552  0.6667919783454153  0.4386500078429449
  0.8327114989382736  0.3325980058901052  0.8141910750050982
  0.8371204888195649  0.4999968282340603  0.6897788530715232
  0.6666171684173960  0.4999977568787060  0.0644688314469306
  0.0001136192301701  0.6665134295794459  0.9389155868562185
  0.8338294183413240  0.3332934392378988  0.3138476153189274
  0.8334347678878942  0.5000031202909909  0.1890786799425328
  0.6657641317581948  0.8332555754466071  0.5640259933191061
  0.9999543964520825  0.0000135807840707  0.4390193610235400
  0.8327071892405371  0.6673921051608716  0.8141896991811706
  0.8329635233313155  0.8332697619201781  0.6883487244603756
  0.6667011353262424  0.8335783812278947  0.0643401440190203
  0.0000604681602212  0.9999991601550136  0.9388898291284278
  0.8338183430366044  0.6667163065799002  0.3138457639393195
  0.8334684259181486  0.8334235730250370  0.1890185346504794
  0.3336957558599494  0.1669358388933375  0.6681094233328153
  0.1665155469190509  0.1674974994475349  0.5849670899647350
  0.9996120023183224  0.1665946669145484  0.4601882655945531
  0.3406690278530959  0.3319250436703882  0.5419641099023025
  0.1664788828498658  0.3327719106506564  0.4178415079808389
  0.9997334915013809  0.9999979465686550  0.8348067229165110
  0.1661757903811107  0.9999981038482986  0.7096640831401615
  0.1657958282844589  0.1669241806458999  0.7924896559250456
  0.3331628768803938  0.1663570357074278  0.1678879276343679
  0.1664583058693694  0.1665593980637681  0.0850474377085106
  0.9999123009992985  0.1667821714411417  0.9598057865214997
  0.3326896782837778  0.3332812377104233  0.0432180478344790
  0.1661261464178381  0.3337343332487066  0.9176549332524289
  0.9997342681058754  0.0000059556882874  0.3352031270070270
  0.1664237506773532  0.0000002932920253  0.2100564760563444
  0.1658899162959244  0.1665455973188301  0.2927931979531166
  0.3442362920725444  0.4999960974222404  0.6641172867730205
  0.1643348856789828  0.5000099375429699  0.5875884080783038
  0.0014779218388909  0.5000119130988239  0.4602190288650334
  0.3406920107700557  0.6680734900163614  0.5419615173388337
  0.1664694473769046  0.6672356095078698  0.4178432421004246
  0.9995924311137614  0.3350785941760108  0.8343994273020670
  0.1699168629622321  0.3340688687965567  0.7097320025934408
  0.1710766647257316  0.4999986205595448  0.7925611508582833
  0.3331723747422544  0.4999984702805520  0.1678994826295082
  0.1664519763044368  0.4999994741721849  0.0850796316138869
  0.9995341801632520  0.4999988661561900  0.9599864053757159
  0.3326885601673411  0.6667146464970486  0.0432186841659004
  0.1661219338273838  0.6662667742139234  0.9176552996303400
  0.9999999561872528  0.3334699976311981  0.3349849565209766
  0.1665641294666074  0.3332998323262828  0.2100102054599731
  0.1663425528764577  0.5000005078590419  0.2928453982900763
  0.3336852984845322  0.8330592978476759  0.6681069912895339
  0.1665058614918138  0.8324875802445888  0.5849634487487023
  0.9996061149831803  0.8334281957702956  0.4601885550101770
  0.3338255162242376  0.9999987438614326  0.5424980063905096
  0.1660244099552912  0.0000088251525625  0.4178811912893963
  0.9995879251151436  0.6649146123188743  0.8343991987809147
  0.1699124523891129  0.6659304562237267  0.7097324536365335
  0.1657849266110176  0.8330714140337037  0.7924876195813439
  0.3331612787973555  0.8336432154065321  0.1678884579762041
  0.1664570407384360  0.8334367545605872  0.0850477911244027
  0.9999093650154691  0.8332158325988104  0.9598056115478499
  0.3330832874669980  0.9999984733450233  0.0429868487517737
  0.1662800282367840  0.9999989222657035  0.9175661366217582
  0.9999900929388801  0.6665467580875060  0.3349851380526374
  0.1665589415589608  0.6667007885321752  0.2100111726235667
  0.1658856042076025  0.8334560836141875  0.2927942967978225
  0.6664043372262896  0.1661577567076478  0.6680509604628000
  0.5007239043012106  0.1650016834762837  0.5858418530042115
  0.3323250750397477  0.1663787136395314  0.4592549694210035
  0.6590308107005285  0.3360557498781702  0.5421479681330510
  0.5007135843429040  0.3314333739333790  0.4167079236193274
  0.3329708821911836  0.9999888635803842  0.8352581563147226
  0.5000534554450056  0.9999879505026925  0.7109127774811412
  0.5000533511566729  0.1653559128438644  0.7940366021626062
  0.6667386416026915  0.1665140485534948  0.1678609745208064
  0.4999255537212761  0.1665274664460696  0.0848811200600466
  0.3322688707342536  0.1665726032885715  0.9602848441993146
  0.6670542549559073  0.3332871238828901  0.0433166588149234
  0.4998667568796975  0.3318793549861994  0.9194774815605982
  0.3332107979894303  0.9999994311692859  0.3348941165790507
  0.4999675640147245  0.9999987271780597  0.2098422192008016
  0.5002082478670999  0.1663953017305246  0.2924618228340350
  0.6479250497291815  0.5000007739073027  0.6556324110432001
  0.3360720083048321  0.4999991722479251  0.4542556465018208
  0.6590435994462851  0.6639473293061897  0.5421479086225887
  0.5007063833795513  0.6685608238352359  0.4167049239145371
  0.3333409386160398  0.3314750488544931  0.8358213702348749
  0.5011608457642325  0.3324699230173209  0.7128925531806445
  0.4984467402163375  0.4999877399977137  0.7974626044460251
  0.6666670337347682  0.5000011415423344  0.1679375812055284
  0.4999130517844179  0.4999973891188532  0.0849253649654003
  0.3331327066440650  0.4999982533988572  0.9601904177857961
  0.6670537389957403  0.6667070162793252  0.0433158598623038
  0.4998627922869900  0.6681077345491815  0.9194778484746706
  0.3333126047441652  0.3325053545113406  0.3341146041786871
  0.4996881691003949  0.3332134418498853  0.2094248754432044
  0.5001773177466262  0.4999971933026472  0.2924918369734186
  0.6663934618875373  0.8338111622048316  0.6680520701820214
  0.5007161156939048  0.8350005518276049  0.5858415423401695
  0.3323088576156294  0.8336208649786911  0.4592521523725495
  0.6672296045164146  0.0000014994724751  0.5431013843096864
  0.5003738675706657  0.9999987427203578  0.4178875407415603
  0.3333355655858838  0.6685134479461681  0.8358222267000244
  0.5011437046923035  0.6675081133407517  0.7128936487546369
  0.5000489187442696  0.8346194774015387  0.7940367080780675
  0.6667371652521297  0.8334861345418574  0.1678604375776658
  0.4999244916535801  0.8334675691758449  0.0848809826906631
  0.3322671718275032  0.8334223862294152  0.9602856728541127
  0.6667935577511983  0.9999973325697340  0.0430202603709944
  0.4998999604503567  0.9999932590058762  0.9184831469825170
  0.3333036984997690  0.6674906981939301  0.3341139331272842
  0.4996816760207849  0.6667820674241653  0.2094233878689735
  0.5002022092676341  0.8336006561350473  0.2924614425459779
  0.9995947819554161  0.1687191583167831  0.6679405204405242
  0.8325086715511318  0.1693610152119405  0.5848384778307150
  0.6675815032913164  0.1667167787698745  0.4604785764385397
  0.0001142406719978  0.3334373913386059  0.5427430579947057
  0.8331425302129603  0.3331302491003711  0.4178462932316123
  0.6669474580812462  0.9999908120405649  0.8353004517227234
  0.8334504934696056  0.9999969176167909  0.7096610201801070
  0.8338594333191480  0.1670324958118528  0.7924217976514498
  0.9998831081352506  0.1665999342860260  0.1676767476430925
  0.8333963906748778  0.1665781044082237  0.0849881215940869
  0.6673658687510198  0.1666003653126040  0.9602758046417961
  0.9999786122258172  0.3333519102325155  0.0425900761540348
  0.8334096876839396  0.3333119782138496  0.9176710829836949
  0.6666326469369110  0.0000006555102203  0.3351390436842081
  0.8333673034036551  0.0000036291161152  0.2099880606150535
  0.8336222454919451  0.1666112346048294  0.2927503760306962
  0.9993429493565742  0.5000098150432422  0.6701924728085871
  0.8379665659548650  0.4999815842544990  0.5851844120625742
  0.6686879247148099  0.5000017295050867  0.4571899593111084
  0.0000783408155129  0.6665836729377830  0.5427440700634563
  0.8331322372631078  0.6668894196879336  0.4178436079612950
  0.6664275777073811  0.3327352679830398  0.8358998406008951
  0.8275056780203442  0.3346880608632503  0.7094720316926413
  0.8308290915083631  0.4999959340739650  0.7922009743606608
  0.9998979264725207  0.5000013376488965  0.1677891911710887
  0.8333500498083239  0.4999977972612299  0.0850534235656539
  0.6667497163583960  0.4999963731051125  0.9603084445734069
  0.9999753502294979  0.6666457258023826  0.0425901548579759
  0.8334060544503359  0.6666830962596251  0.9176697081180336
  0.6667489404223446  0.3325582066160706  0.3340409794293535
  0.8335824291934060  0.3333069587597493  0.2099175258934665
  0.8333413697757948  0.5000042494529637  0.2927854882545020
  0.9995856631975784  0.8312870299605066  0.6679395951616982
  0.8324978162491163  0.8306750084912125  0.5848401939146015
  0.6675648603413720  0.8332855831316266  0.4604788822272710
  0.9988010519408519  0.0000106903495904  0.5433254704835662
  0.8331498368192456  0.0000056948705378  0.4178488020325091
  0.6664232150532570  0.6672435458168522  0.8358988085378130
  0.8275018169527968  0.6653052674935438  0.7094705318840653
  0.8338531505501479  0.8329590935153632  0.7924219784974156
  0.9998812295382606  0.8334032819090282  0.1676765759569818
  0.8333951231658219  0.8334212927576203  0.0849874380463262
  0.6673652038107676  0.8333924054477322  0.9602747806572864
  0.9999517909853779  0.9999993060814063  0.0425935116570315
  0.8334543018435241  0.9999984314464072  0.9176065069418939
  0.6667406431362508  0.6674433914877724  0.3340384134766978
  0.8335782673584831  0.6666996030806729  0.2099159660187908
  0.8336155337248812  0.8333975274649390  0.2927490001719235
  0.3265559083531997  0.4999974348346612  0.5578817333493760
 
  0.00000000E+00  0.00000000E+00  0.00000000E+00
  0.00000000E+00  0.00000000E+00  0.00000000E+00
  0.00000000E+00  0.00000000E+00  0.00000000E+00
  0.00000000E+00  0.00000000E+00  0.00000000E+00
  0.00000000E+00  0.00000000E+00  0.00000000E+00
  0.00000000E+00  0.00000000E+00  0.00000000E+00
  0.00000000E+00  0.00000000E+00  0.00000000E+00
  0.00000000E+00  0.00000000E+00  0.00000000E+00
  0.00000000E+00  0.00000000E+00  0.00000000E+00
  0.00000000E+00  0.00000000E+00  0.00000000E+00
  0.00000000E+00  0.00000000E+00  0.00000000E+00
  0.00000000E+00  0.00000000E+00  0.00000000E+00
  0.00000000E+00  0.00000000E+00  0.00000000E+00
  0.00000000E+00  0.00000000E+00  0.00000000E+00
  0.00000000E+00  0.00000000E+00  0.00000000E+00
  0.00000000E+00  0.00000000E+00  0.00000000E+00
  0.00000000E+00  0.00000000E+00  0.00000000E+00
  0.00000000E+00  0.00000000E+00  0.00000000E+00
  0.00000000E+00  0.00000000E+00  0.00000000E+00
  0.00000000E+00  0.00000000E+00  0.00000000E+00
  0.00000000E+00  0.00000000E+00  0.00000000E+00
  0.00000000E+00  0.00000000E+00  0.00000000E+00
  0.00000000E+00  0.00000000E+00  0.00000000E+00
  0.00000000E+00  0.00000000E+00  0.00000000E+00
  0.00000000E+00  0.00000000E+00  0.00000000E+00
  0.00000000E+00  0.00000000E+00  0.00000000E+00
  0.00000000E+00  0.00000000E+00  0.00000000E+00
  0.00000000E+00  0.00000000E+00  0.00000000E+00
  0.00000000E+00  0.00000000E+00  0.00000000E+00
  0.00000000E+00  0.00000000E+00  0.00000000E+00
  0.00000000E+00  0.00000000E+00  0.00000000E+00
  0.00000000E+00  0.00000000E+00  0.00000000E+00
  0.00000000E+00  0.00000000E+00  0.00000000E+00
  0.00000000E+00  0.00000000E+00  0.00000000E+00
  0.00000000E+00  0.00000000E+00  0.00000000E+00
  0.00000000E+00  0.00000000E+00  0.00000000E+00
  0.00000000E+00  0.00000000E+00  0.00000000E+00
  0.00000000E+00  0.00000000E+00  0.00000000E+00
  0.00000000E+00  0.00000000E+00  0.00000000E+00
  0.00000000E+00  0.00000000E+00  0.00000000E+00
  0.00000000E+00  0.00000000E+00  0.00000000E+00
  0.00000000E+00  0.00000000E+00  0.00000000E+00
  0.00000000E+00  0.00000000E+00  0.00000000E+00
  0.00000000E+00  0.00000000E+00  0.00000000E+00
  0.00000000E+00  0.00000000E+00  0.00000000E+00
  0.00000000E+00  0.00000000E+00  0.00000000E+00
  0.00000000E+00  0.00000000E+00  0.00000000E+00
  0.00000000E+00  0.00000000E+00  0.00000000E+00
  0.00000000E+00  0.00000000E+00  0.00000000E+00
  0.00000000E+00  0.00000000E+00  0.00000000E+00
  0.00000000E+00  0.00000000E+00  0.00000000E+00
  0.00000000E+00  0.00000000E+00  0.00000000E+00
  0.00000000E+00  0.00000000E+00  0.00000000E+00
  0.00000000E+00  0.00000000E+00  0.00000000E+00
  0.00000000E+00  0.00000000E+00  0.00000000E+00
  0.00000000E+00  0.00000000E+00  0.00000000E+00
  0.00000000E+00  0.00000000E+00  0.00000000E+00
  0.00000000E+00  0.00000000E+00  0.00000000E+00
  0.00000000E+00  0.00000000E+00  0.00000000E+00
  0.00000000E+00  0.00000000E+00  0.00000000E+00
  0.00000000E+00  0.00000000E+00  0.00000000E+00
  0.00000000E+00  0.00000000E+00  0.00000000E+00
  0.00000000E+00  0.00000000E+00  0.00000000E+00
  0.00000000E+00  0.00000000E+00  0.00000000E+00
  0.00000000E+00  0.00000000E+00  0.00000000E+00
  0.00000000E+00  0.00000000E+00  0.00000000E+00
  0.00000000E+00  0.00000000E+00  0.00000000E+00
  0.00000000E+00  0.00000000E+00  0.00000000E+00
  0.00000000E+00  0.00000000E+00  0.00000000E+00
  0.00000000E+00  0.00000000E+00  0.00000000E+00
  0.00000000E+00  0.00000000E+00  0.00000000E+00
  0.00000000E+00  0.00000000E+00  0.00000000E+00
  0.00000000E+00  0.00000000E+00  0.00000000E+00
  0.00000000E+00  0.00000000E+00  0.00000000E+00
  0.00000000E+00  0.00000000E+00  0.00000000E+00
  0.00000000E+00  0.00000000E+00  0.00000000E+00
  0.00000000E+00  0.00000000E+00  0.00000000E+00
  0.00000000E+00  0.00000000E+00  0.00000000E+00
  0.00000000E+00  0.00000000E+00  0.00000000E+00
  0.00000000E+00  0.00000000E+00  0.00000000E+00
  0.00000000E+00  0.00000000E+00  0.00000000E+00
  0.00000000E+00  0.00000000E+00  0.00000000E+00
  0.00000000E+00  0.00000000E+00  0.00000000E+00
  0.00000000E+00  0.00000000E+00  0.00000000E+00
  0.00000000E+00  0.00000000E+00  0.00000000E+00
  0.00000000E+00  0.00000000E+00  0.00000000E+00
  0.00000000E+00  0.00000000E+00  0.00000000E+00
  0.00000000E+00  0.00000000E+00  0.00000000E+00
  0.00000000E+00  0.00000000E+00  0.00000000E+00
  0.00000000E+00  0.00000000E+00  0.00000000E+00
  0.00000000E+00  0.00000000E+00  0.00000000E+00
  0.00000000E+00  0.00000000E+00  0.00000000E+00
  0.00000000E+00  0.00000000E+00  0.00000000E+00
  0.00000000E+00  0.00000000E+00  0.00000000E+00
  0.00000000E+00  0.00000000E+00  0.00000000E+00
  0.00000000E+00  0.00000000E+00  0.00000000E+00
  0.00000000E+00  0.00000000E+00  0.00000000E+00
  0.00000000E+00  0.00000000E+00  0.00000000E+00
  0.00000000E+00  0.00000000E+00  0.00000000E+00
  0.00000000E+00  0.00000000E+00  0.00000000E+00
  0.00000000E+00  0.00000000E+00  0.00000000E+00
  0.00000000E+00  0.00000000E+00  0.00000000E+00
  0.00000000E+00  0.00000000E+00  0.00000000E+00
  0.00000000E+00  0.00000000E+00  0.00000000E+00
  0.00000000E+00  0.00000000E+00  0.00000000E+00
  0.00000000E+00  0.00000000E+00  0.00000000E+00
  0.00000000E+00  0.00000000E+00  0.00000000E+00
  0.00000000E+00  0.00000000E+00  0.00000000E+00
  0.00000000E+00  0.00000000E+00  0.00000000E+00
  0.00000000E+00  0.00000000E+00  0.00000000E+00
  0.00000000E+00  0.00000000E+00  0.00000000E+00
  0.00000000E+00  0.00000000E+00  0.00000000E+00
  0.00000000E+00  0.00000000E+00  0.00000000E+00
  0.00000000E+00  0.00000000E+00  0.00000000E+00
  0.00000000E+00  0.00000000E+00  0.00000000E+00
  0.00000000E+00  0.00000000E+00  0.00000000E+00
  0.00000000E+00  0.00000000E+00  0.00000000E+00
  0.00000000E+00  0.00000000E+00  0.00000000E+00
  0.00000000E+00  0.00000000E+00  0.00000000E+00
  0.00000000E+00  0.00000000E+00  0.00000000E+00
  0.00000000E+00  0.00000000E+00  0.00000000E+00
  0.00000000E+00  0.00000000E+00  0.00000000E+00
  0.00000000E+00  0.00000000E+00  0.00000000E+00
  0.00000000E+00  0.00000000E+00  0.00000000E+00
  0.00000000E+00  0.00000000E+00  0.00000000E+00
  0.00000000E+00  0.00000000E+00  0.00000000E+00
  0.00000000E+00  0.00000000E+00  0.00000000E+00
  0.00000000E+00  0.00000000E+00  0.00000000E+00
  0.00000000E+00  0.00000000E+00  0.00000000E+00
  0.00000000E+00  0.00000000E+00  0.00000000E+00
  0.00000000E+00  0.00000000E+00  0.00000000E+00
  0.00000000E+00  0.00000000E+00  0.00000000E+00
  0.00000000E+00  0.00000000E+00  0.00000000E+00
  0.00000000E+00  0.00000000E+00  0.00000000E+00
  0.00000000E+00  0.00000000E+00  0.00000000E+00
  0.00000000E+00  0.00000000E+00  0.00000000E+00
  0.00000000E+00  0.00000000E+00  0.00000000E+00
  0.00000000E+00  0.00000000E+00  0.00000000E+00
  0.00000000E+00  0.00000000E+00  0.00000000E+00
  0.00000000E+00  0.00000000E+00  0.00000000E+00
  0.00000000E+00  0.00000000E+00  0.00000000E+00
  0.00000000E+00  0.00000000E+00  0.00000000E+00
  0.00000000E+00  0.00000000E+00  0.00000000E+00
  0.00000000E+00  0.00000000E+00  0.00000000E+00
  0.00000000E+00  0.00000000E+00  0.00000000E+00
  0.00000000E+00  0.00000000E+00  0.00000000E+00
  0.00000000E+00  0.00000000E+00  0.00000000E+00
  0.00000000E+00  0.00000000E+00  0.00000000E+00
  0.00000000E+00  0.00000000E+00  0.00000000E+00
  0.00000000E+00  0.00000000E+00  0.00000000E+00
  0.00000000E+00  0.00000000E+00  0.00000000E+00
  0.00000000E+00  0.00000000E+00  0.00000000E+00
  0.00000000E+00  0.00000000E+00  0.00000000E+00
  0.00000000E+00  0.00000000E+00  0.00000000E+00
  0.00000000E+00  0.00000000E+00  0.00000000E+00
  0.00000000E+00  0.00000000E+00  0.00000000E+00
  0.00000000E+00  0.00000000E+00  0.00000000E+00
  0.00000000E+00  0.00000000E+00  0.00000000E+00
  0.00000000E+00  0.00000000E+00  0.00000000E+00
  0.00000000E+00  0.00000000E+00  0.00000000E+00
  0.00000000E+00  0.00000000E+00  0.00000000E+00
  0.00000000E+00  0.00000000E+00  0.00000000E+00
  0.00000000E+00  0.00000000E+00  0.00000000E+00
  0.00000000E+00  0.00000000E+00  0.00000000E+00
  0.00000000E+00  0.00000000E+00  0.00000000E+00
  0.00000000E+00  0.00000000E+00  0.00000000E+00
  0.00000000E+00  0.00000000E+00  0.00000000E+00
  0.00000000E+00  0.00000000E+00  0.00000000E+00
  0.00000000E+00  0.00000000E+00  0.00000000E+00
  0.00000000E+00  0.00000000E+00  0.00000000E+00
  0.00000000E+00  0.00000000E+00  0.00000000E+00
  0.00000000E+00  0.00000000E+00  0.00000000E+00
  0.00000000E+00  0.00000000E+00  0.00000000E+00
  0.00000000E+00  0.00000000E+00  0.00000000E+00
  0.00000000E+00  0.00000000E+00  0.00000000E+00
  0.00000000E+00  0.00000000E+00  0.00000000E+00
  0.00000000E+00  0.00000000E+00  0.00000000E+00
  0.00000000E+00  0.00000000E+00  0.00000000E+00
  0.00000000E+00  0.00000000E+00  0.00000000E+00
  0.00000000E+00  0.00000000E+00  0.00000000E+00
  0.00000000E+00  0.00000000E+00  0.00000000E+00
  0.00000000E+00  0.00000000E+00  0.00000000E+00
  0.00000000E+00  0.00000000E+00  0.00000000E+00
  0.00000000E+00  0.00000000E+00  0.00000000E+00
  0.00000000E+00  0.00000000E+00  0.00000000E+00
  0.00000000E+00  0.00000000E+00  0.00000000E+00
  0.00000000E+00  0.00000000E+00  0.00000000E+00
  0.00000000E+00  0.00000000E+00  0.00000000E+00
  0.00000000E+00  0.00000000E+00  0.00000000E+00
  0.00000000E+00  0.00000000E+00  0.00000000E+00
  0.00000000E+00  0.00000000E+00  0.00000000E+00
  0.00000000E+00  0.00000000E+00  0.00000000E+00
  0.00000000E+00  0.00000000E+00  0.00000000E+00
  0.00000000E+00  0.00000000E+00  0.00000000E+00
  0.00000000E+00  0.00000000E+00  0.00000000E+00
  0.00000000E+00  0.00000000E+00  0.00000000E+00
  0.00000000E+00  0.00000000E+00  0.00000000E+00
  0.00000000E+00  0.00000000E+00  0.00000000E+00
  0.00000000E+00  0.00000000E+00  0.00000000E+00
  0.00000000E+00  0.00000000E+00  0.00000000E+00
  0.00000000E+00  0.00000000E+00  0.00000000E+00
  0.00000000E+00  0.00000000E+00  0.00000000E+00
  0.00000000E+00  0.00000000E+00  0.00000000E+00
  0.00000000E+00  0.00000000E+00  0.00000000E+00
  0.00000000E+00  0.00000000E+00  0.00000000E+00
  0.00000000E+00  0.00000000E+00  0.00000000E+00
  0.00000000E+00  0.00000000E+00  0.00000000E+00
  0.00000000E+00  0.00000000E+00  0.00000000E+00
  0.00000000E+00  0.00000000E+00  0.00000000E+00
  0.00000000E+00  0.00000000E+00  0.00000000E+00
  0.00000000E+00  0.00000000E+00  0.00000000E+00
  0.00000000E+00  0.00000000E+00  0.00000000E+00
  0.00000000E+00  0.00000000E+00  0.00000000E+00
  0.00000000E+00  0.00000000E+00  0.00000000E+00
  0.00000000E+00  0.00000000E+00  0.00000000E+00
