Ti4 O8                                  
   1.00000000000000     
    11.5607959665632993    0.0000000000000000    0.0000000000000000
     0.0000000000000000   11.5607959665632993    0.0000000000000000
     0.0000000000000000    0.0000000000000000   19.2862138499999993
   Ti   O    Co
    71   143     1
Direct
  0.0009652747364868  0.1663144713100948  0.5643567611267386
  0.3332106286469880  0.3328052309687735  0.4398535240076384
  0.1668781268936996  0.0006127257712834  0.8138975297548754
  0.1672277714807890  0.1678792355385497  0.6897558891196240
  0.0006535102445966  0.1665491961254020  0.0632374716871027
  0.3330716085598269  0.3332770229990061  0.9387196849082926
  0.1676102993801649  0.9994042206682465  0.3132990414313852
  0.1667639987803113  0.1654059285470808  0.1882744281869364
  0.0027595328841983  0.4979330207935249  0.5649521890933187
  0.3325314217930710  0.6563094485002310  0.4414404605245608
  0.1670309439325024  0.3352897760570386  0.8138106695585989
  0.1651164241725169  0.5011133538148513  0.6879402555974821
  0.0005546508008791  0.5002111565928544  0.0632880008615118
  0.3334256642278675  0.6666814505052443  0.9384397472125556
  0.1670167708382948  0.3326482115839653  0.3126692901016241
  0.1667885824090050  0.4992742828336247  0.1883742262559736
  0.0003435881592750  0.8334537938158775  0.5626907722150207
  0.3334552753913442  0.9973646398944993  0.4405140459365668
  0.1670384267898513  0.6659908017817884  0.8138636980711880
  0.1676138176295296  0.8338414567615402  0.6895281360485157
  0.0002468354364282  0.8331960466856145  0.0635318657288693
  0.3333248856242221  0.9996573223747305  0.9388958128177691
  0.1673178339411052  0.6667187458496997  0.3133303663799296
  0.1667166527996997  0.8324816537246065  0.1882230557997246
  0.3334932940870559  0.1693836529745738  0.5625411970049896
  0.6667021327099434  0.3522939213897303  0.4301632229272343
  0.4999544286395690  0.0012030647744155  0.8143472379494980
  0.4950131483689901  0.1674941507078742  0.6909260493358431
  0.3328132178285301  0.1666935758776091  0.0631781778899452
  0.6662708315779895  0.3332639793142960  0.9390126780796919
  0.4956281168925400  0.0007237085078273  0.3119042672617098
  0.5001450147443904  0.1657370944415959  0.1873067120479703
  0.6662771895827291  0.6587650013900088  0.4319633372617062
  0.5006890283453345  0.3361834270478070  0.8143736823165924
  0.4911450076008137  0.4990682317540305  0.6871261294092577
  0.3329758064813788  0.5001883306637041  0.0631969366175724
  0.6664746415507281  0.6666627367484850  0.9385079522665833
  0.4939968792079341  0.3329782256101126  0.3116080637516987
  0.5000059779436725  0.4987179802657877  0.1875187684476032
  0.3318834261608998  0.8301508095199139  0.5611034180903616
  0.6667330644082412  0.9703975266321976  0.4303464244502635
  0.5005929019039215  0.6653640284579510  0.8135594270052380
  0.4932335453957748  0.8333205345310262  0.6906450057107207
  0.3332237667500308  0.8330650408893732  0.0634594406248326
  0.6663375360966555  0.9995895407332540  0.9388799087760091
  0.4929832967255479  0.6662345538465786  0.3124257025456885
  0.5001212991605541  0.8317019701850938  0.1880884764671080
  0.6665114490037851  0.1460053665548173  0.5718467776355993
  0.0009273891947004  0.3325636402719425  0.4383023456144812
  0.8334777994526732  0.0010861995981060  0.8151583724592868
  0.8365892288856642  0.1667537939958805  0.6911523861953910
  0.6665980260322470  0.1665345150965720  0.0631153106859230
  0.0008944021002577  0.3332612170440754  0.9390075274029570
  0.8360553681791174  0.0005087011650815  0.3117163809116832
  0.8334269359935291  0.1658001276706003  0.1871763673592923
  0.6684816268193643  0.5287751895036479  0.5742687894436145
  0.0011291491640577  0.6635406387070546  0.4398208946293423
  0.8338114828587919  0.3344990656145583  0.8154539179882079
  0.8342398108619591  0.4987952158940772  0.6910966246584564
  0.6665393498089855  0.5002952107654437  0.0631945060390677
  0.0004807293486309  0.6667242361244590  0.9387174699659724
  0.8372082298360652  0.3329222951952318  0.3114836523444069
  0.8334617117521503  0.4988488851794131  0.1872969429097395
  0.6651084156065465  0.8376463484708339  0.5712957973778146
  0.0006727014706058  0.0001880734009205  0.4386047725545552
  0.8338826303125941  0.6679606785434657  0.8145066134153041
  0.8399385136906830  0.8334892531524716  0.6905035040237664
  0.6665871072838954  0.8331723591660349  0.0634382643753355
  0.0007446463342689  0.9996761677906321  0.9389198844671185
  0.8389419754738228  0.6659256418173953  0.3123114767208364
  0.8332754810822962  0.8316487426401693  0.1879300909081465
  0.3321732412434528  0.1696527805483825  0.6682653077861289
  0.1661126476600856  0.1664511107384286  0.5857538276960810
  0.9977013655197879  0.1659966578839800  0.4599551837109104
  0.3380148056356518  0.3282744289633754  0.5403958554458868
  0.1658339167740053  0.3310048929559031  0.4160052246338282
  0.0004848851569434  0.0004240013222017  0.8360553055563571
  0.1666368786239474  0.0006667621513543  0.7107718532673744
  0.1670766693461729  0.1671043602654549  0.7925322232522163
  0.3331551167098539  0.1653526840922979  0.1665642381924712
  0.1666973903747007  0.1663846672278879  0.0848080267618627
  0.0004128283217781  0.1664615525303077  0.9604569853722396
  0.3332733411871374  0.3331819670914840  0.0420721667239832
  0.1668332694288921  0.3332396754544718  0.9177409605754221
  0.9993718588337615  0.9985540688408534  0.3351880874912467
  0.1667058657618696  0.9987596317553340  0.2098827878861158
  0.1659893856230568  0.1648434566044372  0.2911511347226252
  0.3317015213900376  0.5013903036963825  0.6712917918206358
  0.1594115265636802  0.4977050401201879  0.5870284618179511
  0.0017124492517127  0.4986925858517210  0.4603516113555557
  0.3391079278769524  0.6695789886391381  0.5409330092002165
  0.1654512765856069  0.6669092472606266  0.4166984159565956
  0.0002291636560230  0.3336257653436334  0.8361625976560347
  0.1651070410911117  0.3342432118846901  0.7114127880012475
  0.1655101780340260  0.5008510548854730  0.7934310321702895
  0.3330983347980094  0.4993782355889280  0.1665069174927254
  0.1667077965458290  0.5000762219130337  0.0849137003609926
  0.0004275242521032  0.5000523858753780  0.9603404989158406
  0.3333911058981087  0.6666151235857143  0.0420089240458026
  0.1669123593774344  0.6667876224531426  0.9174810745081743
  0.0007953396464089  0.3308389711197961  0.3337697308821816
  0.1665428317431363  0.3322984965699618  0.2095905157668838
  0.1664094795549929  0.4991052555454090  0.2914761647073263
  0.3323532871171864  0.8335257942487928  0.6675025035233020
  0.1660398435568382  0.8318832068390094  0.5851580121247295
  0.9976067603336247  0.8331405151464253  0.4603401231124380
  0.3325135009521105  0.0000015668551114  0.5404992011958996
  0.1660098207312188  0.9999274359223165  0.4165640257886167
  0.0002698511878734  0.6681633676897007  0.8360465119785871
  0.1653556767921245  0.6675455282460376  0.7110236198635178
  0.1671780457012346  0.8341490207539621  0.7921322295548237
  0.3332755126405260  0.8322131163801458  0.1667672378094380
  0.1667106180064906  0.8331327753603617  0.0851262726274697
  0.0003228128238675  0.8332821733010363  0.9605159281436784
  0.3332641835571479  0.9997039988622163  0.0421049206327027
  0.1668785604283514  0.9997615942025959  0.9175431212531180
  0.0003157040620323  0.6658478248374209  0.3345953011957334
  0.1666266791189770  0.6659587512392164  0.2101202930194148
  0.1661011957113061  0.8326502967376754  0.2916536251455355
  0.6669767214856392  0.1663459204365694  0.6705263002484614
  0.5001620051150368  0.1594514724055642  0.5886765245527528
  0.3347091493055530  0.1659018729447652  0.4589645985402129
  0.4993392088914135  0.3387804456941694  0.4133535374053494
  0.3332972028666035  0.0003398563173747  0.8359245598578298
  0.4974451780568145  0.0007751201727970  0.7117564719055878
  0.4992940379043631  0.1674207097767635  0.7936141948081428
  0.6667021802081479  0.1650177367059769  0.1665859322959165
  0.5000120290672214  0.1662311885565089  0.0848188173237148
  0.3334006002543290  0.1665372149368807  0.9603604327022452
  0.6665143746122340  0.3331708548707581  0.0421772152960003
  0.5000491650812009  0.3336601657524483  0.9176413119215141
  0.3333398686470801  0.9985665696981059  0.3342289625833743
  0.4991597653514503  0.9987315947538562  0.2096542876373135
  0.4999837398195055  0.1654148683896466  0.2910931258926936
  0.6700250505492065  0.5129113070301941  0.6730660514606583
  0.5127433400219843  0.4901869885078938  0.5881542710478698
  0.3288468609011943  0.4982763079195607  0.4553523327255817
  0.6668558195993839  0.6776981573181260  0.5460799004473245
  0.5002928970156972  0.6596548469396595  0.4160607391813969
  0.3332101305188573  0.3345198015131459  0.8358135203611639
  0.5001403019201121  0.3339899046744534  0.7112858841629972
  0.5004973957455547  0.5006861702064995  0.7933591921970873
  0.6666741594694656  0.4992436558677937  0.1665751438111016
  0.4999532754501743  0.5000773329107489  0.0846521828267157
  0.3332863493518232  0.5000209342948452  0.9603060640637793
  0.6665199255050567  0.6666265349119769  0.0420226393895149
  0.5001756123582410  0.6664614198015855  0.9170861742419589
  0.3320287779451689  0.3299563165953572  0.3328225602819970
  0.4994291016886763  0.3320154497177157  0.2083329600051655
  0.4972644860670812  0.4987566627159978  0.2903851982870407
  0.6667624520871698  0.8372561444070215  0.6677734588540858
  0.5004677373314550  0.8389883692863904  0.5861012240520935
  0.3345027522172117  0.8342664927128425  0.4591262153247513
  0.6669397009455764  0.9988238276423971  0.5330523340727140
  0.5032192864164244  0.0021698760759321  0.4159740044679836
  0.3332821764482006  0.6670805235154660  0.8356143296122553
  0.4974151920845102  0.6682258269482801  0.7104671705922669
  0.4996232006281147  0.8338916935740386  0.7925226316143110
  0.6666885546111629  0.8324337424940182  0.1669159499039523
  0.5000841894112398  0.8330252929377409  0.0852169865033829
  0.3335391911940206  0.8331455776490486  0.9604054377271822
  0.6665952968751157  0.9996737479320927  0.0421435584185232
  0.5000081008502661  0.9997145741367319  0.9177774963722669
  0.3324697421734157  0.6662010756101324  0.3339723677034740
  0.4996242278121770  0.6657021770537312  0.2095092900812432
  0.4991981315500453  0.8312727349701632  0.2917239693681353
  0.0008288065562354  0.1687729498485879  0.6680331916908102
  0.8337807113238114  0.1600253911617457  0.5886508731834894
  0.6668367969910776  0.2453556882386749  0.4991045030243342
  0.9975611848552575  0.3309466408093300  0.5413773399977515
  0.8342522277892925  0.3385502677326215  0.4136158454512540
  0.6666175606267757  0.0006111736570062  0.8359185877914754
  0.8356247908725933  0.0008713890661411  0.7120399751371522
  0.8342392563547349  0.1672522885694363  0.7941063133423967
  0.0001351146615320  0.1652609336824682  0.1665479163512700
  0.8333331354888998  0.1663143249633237  0.0848038057542553
  0.6665238193778578  0.1664864795135443  0.9604195337700645
  0.0002501888327586  0.3331946376542945  0.0422006370855144
  0.8334303246243735  0.3333311501066376  0.9180065140452882
  0.6668097164878546  0.9933240132962879  0.3319617071266023
  0.8341090508775793  0.9987399358198559  0.2096666513983365
  0.8336019428534485  0.1654404815631381  0.2911060549967601
  0.9979302083412733  0.5019694244176875  0.6686588496066150
  0.8298467461231525  0.4920615214421602  0.5876289879313106
  0.6681584590466088  0.4987462545477968  0.4693926014126930
  0.9963969599067823  0.6662524311353408  0.5417437943914720
  0.8336698843699750  0.6606671058258797  0.4161106277507898
  0.6668158336960204  0.3338876985329193  0.8360870565280933
  0.8329568678501786  0.3336283858775957  0.7120061146679220
  0.8344219181029615  0.5007710074316094  0.7940748572070291
  0.0002260691525464  0.4994035874214902  0.1664944502451533
  0.8333859310641287  0.5000706254193830  0.0846426763243073
  0.6666591151354950  0.5000439996538688  0.9603196052890084
  0.0001742310180006  0.6666453200845623  0.0421750578435365
  0.8334045039892075  0.6669438010005706  0.9176186082115407
  0.6669842621456183  0.3337256129476600  0.3318539921639783
  0.8339583116950351  0.3320363479468753  0.2083872722067355
  0.8358676348768341  0.4988372091532014  0.2903828404554716
  0.0010699216104015  0.8344987889363153  0.6676042251070982
  0.8341133313303501  0.8383897353411243  0.5866258348751288
  0.6665437731862340  0.8221798417808017  0.4539567628909964
  0.0015744846629104  0.9999152810246699  0.5413835866935699
  0.8301031551716278  0.0022371859690935  0.4161969713458973
  0.6669353299995038  0.6677420176459989  0.8355375197694812
  0.8366691602692171  0.6695217073155746  0.7116440223209892
  0.8339267543202027  0.8346145781987744  0.7933794372230309
  0.0000342176295192  0.8323078581238761  0.1667516233671833
  0.8332461322925582  0.8329894485874405  0.0851801609783394
  0.6665350775786365  0.8332039589889888  0.9604360193852060
  0.0002025205007001  0.9997325741587133  0.0422308397903208
  0.8334647619230395  0.9998098985949184  0.9178933080971490
  0.6668684750490073  0.6603456498578097  0.3350079012991003
  0.8336977957632570  0.6656718322755779  0.2094080967833492
  0.8342625778148189  0.8312110308767444  0.2916648390728582
  0.3338170004870449  0.4973815762571050  0.5662016181311600
 
  0.00000000E+00  0.00000000E+00  0.00000000E+00
  0.00000000E+00  0.00000000E+00  0.00000000E+00
  0.00000000E+00  0.00000000E+00  0.00000000E+00
  0.00000000E+00  0.00000000E+00  0.00000000E+00
  0.00000000E+00  0.00000000E+00  0.00000000E+00
  0.00000000E+00  0.00000000E+00  0.00000000E+00
  0.00000000E+00  0.00000000E+00  0.00000000E+00
  0.00000000E+00  0.00000000E+00  0.00000000E+00
  0.00000000E+00  0.00000000E+00  0.00000000E+00
  0.00000000E+00  0.00000000E+00  0.00000000E+00
  0.00000000E+00  0.00000000E+00  0.00000000E+00
  0.00000000E+00  0.00000000E+00  0.00000000E+00
  0.00000000E+00  0.00000000E+00  0.00000000E+00
  0.00000000E+00  0.00000000E+00  0.00000000E+00
  0.00000000E+00  0.00000000E+00  0.00000000E+00
  0.00000000E+00  0.00000000E+00  0.00000000E+00
  0.00000000E+00  0.00000000E+00  0.00000000E+00
  0.00000000E+00  0.00000000E+00  0.00000000E+00
  0.00000000E+00  0.00000000E+00  0.00000000E+00
  0.00000000E+00  0.00000000E+00  0.00000000E+00
  0.00000000E+00  0.00000000E+00  0.00000000E+00
  0.00000000E+00  0.00000000E+00  0.00000000E+00
  0.00000000E+00  0.00000000E+00  0.00000000E+00
  0.00000000E+00  0.00000000E+00  0.00000000E+00
  0.00000000E+00  0.00000000E+00  0.00000000E+00
  0.00000000E+00  0.00000000E+00  0.00000000E+00
  0.00000000E+00  0.00000000E+00  0.00000000E+00
  0.00000000E+00  0.00000000E+00  0.00000000E+00
  0.00000000E+00  0.00000000E+00  0.00000000E+00
  0.00000000E+00  0.00000000E+00  0.00000000E+00
  0.00000000E+00  0.00000000E+00  0.00000000E+00
  0.00000000E+00  0.00000000E+00  0.00000000E+00
  0.00000000E+00  0.00000000E+00  0.00000000E+00
  0.00000000E+00  0.00000000E+00  0.00000000E+00
  0.00000000E+00  0.00000000E+00  0.00000000E+00
  0.00000000E+00  0.00000000E+00  0.00000000E+00
  0.00000000E+00  0.00000000E+00  0.00000000E+00
  0.00000000E+00  0.00000000E+00  0.00000000E+00
  0.00000000E+00  0.00000000E+00  0.00000000E+00
  0.00000000E+00  0.00000000E+00  0.00000000E+00
  0.00000000E+00  0.00000000E+00  0.00000000E+00
  0.00000000E+00  0.00000000E+00  0.00000000E+00
  0.00000000E+00  0.00000000E+00  0.00000000E+00
  0.00000000E+00  0.00000000E+00  0.00000000E+00
  0.00000000E+00  0.00000000E+00  0.00000000E+00
  0.00000000E+00  0.00000000E+00  0.00000000E+00
  0.00000000E+00  0.00000000E+00  0.00000000E+00
  0.00000000E+00  0.00000000E+00  0.00000000E+00
  0.00000000E+00  0.00000000E+00  0.00000000E+00
  0.00000000E+00  0.00000000E+00  0.00000000E+00
  0.00000000E+00  0.00000000E+00  0.00000000E+00
  0.00000000E+00  0.00000000E+00  0.00000000E+00
  0.00000000E+00  0.00000000E+00  0.00000000E+00
  0.00000000E+00  0.00000000E+00  0.00000000E+00
  0.00000000E+00  0.00000000E+00  0.00000000E+00
  0.00000000E+00  0.00000000E+00  0.00000000E+00
  0.00000000E+00  0.00000000E+00  0.00000000E+00
  0.00000000E+00  0.00000000E+00  0.00000000E+00
  0.00000000E+00  0.00000000E+00  0.00000000E+00
  0.00000000E+00  0.00000000E+00  0.00000000E+00
  0.00000000E+00  0.00000000E+00  0.00000000E+00
  0.00000000E+00  0.00000000E+00  0.00000000E+00
  0.00000000E+00  0.00000000E+00  0.00000000E+00
  0.00000000E+00  0.00000000E+00  0.00000000E+00
  0.00000000E+00  0.00000000E+00  0.00000000E+00
  0.00000000E+00  0.00000000E+00  0.00000000E+00
  0.00000000E+00  0.00000000E+00  0.00000000E+00
  0.00000000E+00  0.00000000E+00  0.00000000E+00
  0.00000000E+00  0.00000000E+00  0.00000000E+00
  0.00000000E+00  0.00000000E+00  0.00000000E+00
  0.00000000E+00  0.00000000E+00  0.00000000E+00
  0.00000000E+00  0.00000000E+00  0.00000000E+00
  0.00000000E+00  0.00000000E+00  0.00000000E+00
  0.00000000E+00  0.00000000E+00  0.00000000E+00
  0.00000000E+00  0.00000000E+00  0.00000000E+00
  0.00000000E+00  0.00000000E+00  0.00000000E+00
  0.00000000E+00  0.00000000E+00  0.00000000E+00
  0.00000000E+00  0.00000000E+00  0.00000000E+00
  0.00000000E+00  0.00000000E+00  0.00000000E+00
  0.00000000E+00  0.00000000E+00  0.00000000E+00
  0.00000000E+00  0.00000000E+00  0.00000000E+00
  0.00000000E+00  0.00000000E+00  0.00000000E+00
  0.00000000E+00  0.00000000E+00  0.00000000E+00
  0.00000000E+00  0.00000000E+00  0.00000000E+00
  0.00000000E+00  0.00000000E+00  0.00000000E+00
  0.00000000E+00  0.00000000E+00  0.00000000E+00
  0.00000000E+00  0.00000000E+00  0.00000000E+00
  0.00000000E+00  0.00000000E+00  0.00000000E+00
  0.00000000E+00  0.00000000E+00  0.00000000E+00
  0.00000000E+00  0.00000000E+00  0.00000000E+00
  0.00000000E+00  0.00000000E+00  0.00000000E+00
  0.00000000E+00  0.00000000E+00  0.00000000E+00
  0.00000000E+00  0.00000000E+00  0.00000000E+00
  0.00000000E+00  0.00000000E+00  0.00000000E+00
  0.00000000E+00  0.00000000E+00  0.00000000E+00
  0.00000000E+00  0.00000000E+00  0.00000000E+00
  0.00000000E+00  0.00000000E+00  0.00000000E+00
  0.00000000E+00  0.00000000E+00  0.00000000E+00
  0.00000000E+00  0.00000000E+00  0.00000000E+00
  0.00000000E+00  0.00000000E+00  0.00000000E+00
  0.00000000E+00  0.00000000E+00  0.00000000E+00
  0.00000000E+00  0.00000000E+00  0.00000000E+00
  0.00000000E+00  0.00000000E+00  0.00000000E+00
  0.00000000E+00  0.00000000E+00  0.00000000E+00
  0.00000000E+00  0.00000000E+00  0.00000000E+00
  0.00000000E+00  0.00000000E+00  0.00000000E+00
  0.00000000E+00  0.00000000E+00  0.00000000E+00
  0.00000000E+00  0.00000000E+00  0.00000000E+00
  0.00000000E+00  0.00000000E+00  0.00000000E+00
  0.00000000E+00  0.00000000E+00  0.00000000E+00
  0.00000000E+00  0.00000000E+00  0.00000000E+00
  0.00000000E+00  0.00000000E+00  0.00000000E+00
  0.00000000E+00  0.00000000E+00  0.00000000E+00
  0.00000000E+00  0.00000000E+00  0.00000000E+00
  0.00000000E+00  0.00000000E+00  0.00000000E+00
  0.00000000E+00  0.00000000E+00  0.00000000E+00
  0.00000000E+00  0.00000000E+00  0.00000000E+00
  0.00000000E+00  0.00000000E+00  0.00000000E+00
  0.00000000E+00  0.00000000E+00  0.00000000E+00
  0.00000000E+00  0.00000000E+00  0.00000000E+00
  0.00000000E+00  0.00000000E+00  0.00000000E+00
  0.00000000E+00  0.00000000E+00  0.00000000E+00
  0.00000000E+00  0.00000000E+00  0.00000000E+00
  0.00000000E+00  0.00000000E+00  0.00000000E+00
  0.00000000E+00  0.00000000E+00  0.00000000E+00
  0.00000000E+00  0.00000000E+00  0.00000000E+00
  0.00000000E+00  0.00000000E+00  0.00000000E+00
  0.00000000E+00  0.00000000E+00  0.00000000E+00
  0.00000000E+00  0.00000000E+00  0.00000000E+00
  0.00000000E+00  0.00000000E+00  0.00000000E+00
  0.00000000E+00  0.00000000E+00  0.00000000E+00
  0.00000000E+00  0.00000000E+00  0.00000000E+00
  0.00000000E+00  0.00000000E+00  0.00000000E+00
  0.00000000E+00  0.00000000E+00  0.00000000E+00
  0.00000000E+00  0.00000000E+00  0.00000000E+00
  0.00000000E+00  0.00000000E+00  0.00000000E+00
  0.00000000E+00  0.00000000E+00  0.00000000E+00
  0.00000000E+00  0.00000000E+00  0.00000000E+00
  0.00000000E+00  0.00000000E+00  0.00000000E+00
  0.00000000E+00  0.00000000E+00  0.00000000E+00
  0.00000000E+00  0.00000000E+00  0.00000000E+00
  0.00000000E+00  0.00000000E+00  0.00000000E+00
  0.00000000E+00  0.00000000E+00  0.00000000E+00
  0.00000000E+00  0.00000000E+00  0.00000000E+00
  0.00000000E+00  0.00000000E+00  0.00000000E+00
  0.00000000E+00  0.00000000E+00  0.00000000E+00
  0.00000000E+00  0.00000000E+00  0.00000000E+00
  0.00000000E+00  0.00000000E+00  0.00000000E+00
  0.00000000E+00  0.00000000E+00  0.00000000E+00
  0.00000000E+00  0.00000000E+00  0.00000000E+00
  0.00000000E+00  0.00000000E+00  0.00000000E+00
  0.00000000E+00  0.00000000E+00  0.00000000E+00
  0.00000000E+00  0.00000000E+00  0.00000000E+00
  0.00000000E+00  0.00000000E+00  0.00000000E+00
  0.00000000E+00  0.00000000E+00  0.00000000E+00
  0.00000000E+00  0.00000000E+00  0.00000000E+00
  0.00000000E+00  0.00000000E+00  0.00000000E+00
  0.00000000E+00  0.00000000E+00  0.00000000E+00
  0.00000000E+00  0.00000000E+00  0.00000000E+00
  0.00000000E+00  0.00000000E+00  0.00000000E+00
  0.00000000E+00  0.00000000E+00  0.00000000E+00
  0.00000000E+00  0.00000000E+00  0.00000000E+00
  0.00000000E+00  0.00000000E+00  0.00000000E+00
  0.00000000E+00  0.00000000E+00  0.00000000E+00
  0.00000000E+00  0.00000000E+00  0.00000000E+00
  0.00000000E+00  0.00000000E+00  0.00000000E+00
  0.00000000E+00  0.00000000E+00  0.00000000E+00
  0.00000000E+00  0.00000000E+00  0.00000000E+00
  0.00000000E+00  0.00000000E+00  0.00000000E+00
  0.00000000E+00  0.00000000E+00  0.00000000E+00
  0.00000000E+00  0.00000000E+00  0.00000000E+00
  0.00000000E+00  0.00000000E+00  0.00000000E+00
  0.00000000E+00  0.00000000E+00  0.00000000E+00
  0.00000000E+00  0.00000000E+00  0.00000000E+00
  0.00000000E+00  0.00000000E+00  0.00000000E+00
  0.00000000E+00  0.00000000E+00  0.00000000E+00
  0.00000000E+00  0.00000000E+00  0.00000000E+00
  0.00000000E+00  0.00000000E+00  0.00000000E+00
  0.00000000E+00  0.00000000E+00  0.00000000E+00
  0.00000000E+00  0.00000000E+00  0.00000000E+00
  0.00000000E+00  0.00000000E+00  0.00000000E+00
  0.00000000E+00  0.00000000E+00  0.00000000E+00
  0.00000000E+00  0.00000000E+00  0.00000000E+00
  0.00000000E+00  0.00000000E+00  0.00000000E+00
  0.00000000E+00  0.00000000E+00  0.00000000E+00
  0.00000000E+00  0.00000000E+00  0.00000000E+00
  0.00000000E+00  0.00000000E+00  0.00000000E+00
  0.00000000E+00  0.00000000E+00  0.00000000E+00
  0.00000000E+00  0.00000000E+00  0.00000000E+00
  0.00000000E+00  0.00000000E+00  0.00000000E+00
  0.00000000E+00  0.00000000E+00  0.00000000E+00
  0.00000000E+00  0.00000000E+00  0.00000000E+00
  0.00000000E+00  0.00000000E+00  0.00000000E+00
  0.00000000E+00  0.00000000E+00  0.00000000E+00
  0.00000000E+00  0.00000000E+00  0.00000000E+00
  0.00000000E+00  0.00000000E+00  0.00000000E+00
  0.00000000E+00  0.00000000E+00  0.00000000E+00
  0.00000000E+00  0.00000000E+00  0.00000000E+00
  0.00000000E+00  0.00000000E+00  0.00000000E+00
  0.00000000E+00  0.00000000E+00  0.00000000E+00
  0.00000000E+00  0.00000000E+00  0.00000000E+00
  0.00000000E+00  0.00000000E+00  0.00000000E+00
  0.00000000E+00  0.00000000E+00  0.00000000E+00
  0.00000000E+00  0.00000000E+00  0.00000000E+00
  0.00000000E+00  0.00000000E+00  0.00000000E+00
  0.00000000E+00  0.00000000E+00  0.00000000E+00
  0.00000000E+00  0.00000000E+00  0.00000000E+00
  0.00000000E+00  0.00000000E+00  0.00000000E+00
  0.00000000E+00  0.00000000E+00  0.00000000E+00
  0.00000000E+00  0.00000000E+00  0.00000000E+00
  0.00000000E+00  0.00000000E+00  0.00000000E+00
  0.00000000E+00  0.00000000E+00  0.00000000E+00
  0.00000000E+00  0.00000000E+00  0.00000000E+00
  0.00000000E+00  0.00000000E+00  0.00000000E+00
  0.00000000E+00  0.00000000E+00  0.00000000E+00
