Ti4 O8                                  
   1.00000000000000     
    11.5607959665632993    0.0000000000000000    0.0000000000000000
     0.0000000000000000   11.5607959665632993    0.0000000000000000
     0.0000000000000000    0.0000000000000000   19.2862138499999993
   Ti   O    Co
    71   143     1
Direct
  0.9699565808954692  0.1663815363886195  0.5550664185780207
  0.3325037260513743  0.3423326001113488  0.4383570500192783
  0.1675808253902038  0.9969097229794771  0.8158665283914346
  0.1467601027277692  0.1666344373059692  0.6964519424270726
  0.9995150623094619  0.1667053560516686  0.0641317261140368
  0.3341816351092106  0.3331794587042839  0.9399948354579092
  0.1664751905168501  0.9998159145252875  0.3123182251874569
  0.1663876141743078  0.1668441340175782  0.1883617343371661
  0.0034570700647149  0.4997591874641995  0.5647991927173202
  0.3321652991088518  0.6640250950526230  0.4391118438128081
  0.1681125042334157  0.3386317590665867  0.8158521427458857
  0.1611455921473774  0.5001143460441690  0.6882020036356157
  0.9997429851935603  0.5003533957991115  0.0641265699798957
  0.3344572873315300  0.6664866342027816  0.9389469739804979
  0.1669429899945172  0.3329227822959097  0.3127159763603808
  0.1664243313355687  0.5005260749798079  0.1886413123111505
  0.0011853276963951  0.8324415481582135  0.5636052977614420
  0.3326398620823130  0.9971345744953872  0.4376021538534032
  0.1687768359585669  0.6665202895575510  0.8147300144863991
  0.1656098780174675  0.8325524218045089  0.6892080523060147
  0.9995927813820188  0.8329451778018435  0.0641065551511767
  0.3342941721821825  0.9998181052221121  0.9402502009193184
  0.1665210740686096  0.6667325146557878  0.3136051717891316
  0.1664243116076633  0.8327107981674412  0.1884055093407329
  0.3521505102984149  0.1688116538811395  0.5537920011000713
  0.6651604506664873  0.3399330108448971  0.4367798114435018
  0.4997088047229465  0.9970377873756839  0.8154064428271474
  0.5284328110521622  0.1665069811882140  0.6968447679272531
  0.3332068165347280  0.1668332666506506  0.0642363517713160
  0.6677278485458911  0.3331717659657836  0.9393229194848040
  0.4973762498825237  0.9997053796874713  0.3124085657112340
  0.5002338792751591  0.1668572220734349  0.1884622690024527
  0.6654398762432742  0.6662290449022568  0.4376504497982907
  0.5006161762015550  0.3381270478744769  0.8152276418659915
  0.4885653355213693  0.4993934440762776  0.6862774074172711
  0.3331796743271704  0.5005776896341061  0.0641608197482645
  0.6666938001740673  0.6665985257511592  0.9390601815949022
  0.4966632910619819  0.3330624806490555  0.3127663435764443
  0.5001246462638177  0.5003031017845251  0.1885841001950643
  0.3325184696412944  0.8297811921885422  0.5612066773564287
  0.6653535623577292  0.9938481443209364  0.4367833817679268
  0.5023187181781349  0.6655317311725726  0.8135181406400316
  0.4954788825483641  0.8323019802804980  0.6883260248619374
  0.3331724868037754  0.8326212254438854  0.0641239488776477
  0.6677593258639575  0.9999451971136608  0.9394635847161015
  0.4974003271111148  0.6666645483700259  0.3134447459919432
  0.5001667369118573  0.8328824657913371  0.1884111416765625
  0.6593788155731125  0.1671964209121590  0.5561495687946425
  0.0003889112496370  0.3369194368191437  0.4365083179035142
  0.8342286268055994  0.9939439409559001  0.8155552433136167
  0.8389170319280613  0.1667852771727721  0.6963608288182538
  0.6664337644569506  0.1667409969065179  0.0638555581651817
  0.0011411946129708  0.3331850125185231  0.9399811411457039
  0.8313111918997333  0.0000037450102954  0.3129674238821070
  0.8331503746343478  0.1668129443703973  0.1886516663943134
  0.6635783242146388  0.5009650603990020  0.5656968083597148
  0.9990369934058381  0.6660152128250139  0.4380108332257313
  0.8349876665528918  0.3405521522951659  0.8154774409556595
  0.8282022941740570  0.5008913381675627  0.6868608432189306
  0.6664047063285060  0.5002063677795655  0.0638383909436355
  0.0006881287178912  0.6665540353520584  0.9392104759540073
  0.8314005834809898  0.3333531872470022  0.3132266900197765
  0.8330890787697885  0.5001297877983683  0.1886050443397672
  0.6649526354941712  0.8322327855716151  0.5646305893742107
  0.0003899169179979  0.9969917708703522  0.4362874214295462
  0.8352700013916230  0.6663900151484643  0.8146645241925047
  0.8323534152976559  0.8321619069282490  0.6876412956575430
  0.6664971018174543  0.8330415989676212  0.0638171882145388
  0.0013024490320039  0.9997798175370649  0.9400349121349266
  0.8323646834248327  0.6665907005903395  0.3134078371074556
  0.8330886746734599  0.8330097707756609  0.1886346876494702
  0.2463106938635530  0.1668775932450049  0.6246804750594653
  0.9919988435756583  0.1662970682193033  0.4567605830965794
  0.3425888419339874  0.3303342768155850  0.5371114667447846
  0.1647101174254381  0.3325634692723199  0.4159556380346739
  0.0010106351330985  0.9977973723459160  0.8369737912082865
  0.1597699074411077  0.9992186615837451  0.7135863600214440
  0.1677297354989774  0.1662254994179575  0.7953088906292761
  0.3331405651995476  0.1667197178340057  0.1669348322401715
  0.1664809637237891  0.1666975108685851  0.0851841318172263
  0.0005385921164279  0.1665907368163719  0.9608053033639796
  0.3334461645928927  0.3333597323348370  0.0425429125043804
  0.1677032338187003  0.3337606731446833  0.9190322622641488
  0.9982773430133640  0.9990678846985636  0.3345495868341975
  0.1662892694100091  0.9999760279428506  0.2095020514114296
  0.1643501797736336  0.1665113311176381  0.2913173371884265
  0.3306606206356146  0.4990505146980228  0.6722186441426661
  0.1605382193407965  0.4967141102920349  0.5874225876900242
  0.9988801772269069  0.4998619716898250  0.4602805217496160
  0.3352601264215749  0.6709210456710162  0.5401581480606209
  0.1642551382217618  0.6680765419384438  0.4159614436699572
  0.0008004550722748  0.3349199623463794  0.8371119280920950
  0.1586852520143019  0.3337632966334049  0.7141244566713234
  0.1677487908449025  0.5011605963098927  0.7947750757724743
  0.3331335094745697  0.5001805834294556  0.1669346960024248
  0.1664724729298125  0.5001720020115169  0.0852510231384225
  0.0005621847029776  0.5002478244944615  0.9608462954305739
  0.3333553641304242  0.6666743731420937  0.0424728635943633
  0.1674604263396283  0.6669223560223251  0.9178162546009156
  0.9983356099849703  0.3343634588666310  0.3347054811835510
  0.1661882053612050  0.3332864737410102  0.2096411408825135
  0.1652321211128820  0.5002166003497853  0.2914590870998882
  0.3321025185134299  0.8349412798369997  0.6675253053645850
  0.1660678875216185  0.8351424529234781  0.5855434779509022
  0.9981837467411248  0.8337798664444435  0.4603468544662241
  0.3395741508955995  0.9993762780440905  0.5379812142163467
  0.1647559389926939  0.9997148572420135  0.4157378481079981
  0.0004662881084986  0.6675051335624205  0.8361283298412698
  0.1646319477434574  0.6674667518478727  0.7115288743691082
  0.1693224231479871  0.8327547625734367  0.7934162833002094
  0.3331408601411232  0.8330849660044749  0.1668959714756463
  0.1664737636271255  0.8331559654446266  0.0851652008352693
  0.0004757907178933  0.8332070163604880  0.9608837787773672
  0.3334214989813372  0.9999803343322898  0.0425246186569098
  0.1677693784062918  0.9994541840967377  0.9189194046601010
  0.9983559483413769  0.6663872241774950  0.3350157348327165
  0.1662380092986616  0.6666913550308765  0.2096121728970879
  0.1646423442746051  0.8332595995257307  0.2912640780661636
  0.6770189667730729  0.1667857649571445  0.6726527738361631
  0.4999621959006006  0.1660624246680882  0.5944542621687048
  0.3330323575246747  0.1649678961414383  0.4555311246871246
  0.6618614351652741  0.3326200180212017  0.5410815632240910
  0.4992048455577963  0.3359501679293675  0.4149486785284041
  0.3344511559236899  0.9996858033602208  0.8362973721707525
  0.4959369503893413  0.0034067930913544  0.7111375971246152
  0.5072603132634240  0.1663893481546984  0.7953461054712461
  0.6665809385749619  0.1666093908551929  0.1668304290870328
  0.5000303908382587  0.1666355212045215  0.0851034326931283
  0.3347174715864856  0.1666695029849412  0.9607764794316144
  0.6666299010596424  0.3332614653884090  0.0421650005494738
  0.5009728048389106  0.3341509811282618  0.9176946673109007
  0.3318321877069830  0.9994053536496600  0.3325348375292620
  0.4998939683617651  0.9999147501275674  0.2093120317076133
  0.4994323868155705  0.1665470033172073  0.2913061083415787
  0.6682428204838106  0.4978283246220959  0.6693266346919007
  0.5059466109601741  0.5007880790461299  0.5877156286177702
  0.3286485114546032  0.5017642076952027  0.4533363986921871
  0.6672236799644963  0.6676605739595656  0.5419174171405554
  0.4993315470572192  0.6672204689353679  0.4160766074218977
  0.3342602541011184  0.3338208283654871  0.8362820033802634
  0.4950641546458201  0.3294052929461409  0.7112881758215732
  0.5018167021706607  0.4998356935941429  0.7930204982966730
  0.6665441419813205  0.5000936236079154  0.1668567035358201
  0.4999767869241561  0.5001628926527999  0.0851111673275443
  0.3343691686124933  0.5002050312615719  0.9607629164020418
  0.6664859004364964  0.6666766280780848  0.0422168351969434
  0.5009083967376402  0.6665893553941913  0.9173226260970578
  0.3318239294801661  0.3330937349858914  0.3323069829788761
  0.5000187268805745  0.3333318998991037  0.2093325284046822
  0.4990021374920023  0.5002638865833550  0.2912692314902887
  0.6664489107249071  0.8354271579047946  0.6671583248537047
  0.4997536908213323  0.8324372803688780  0.5862209953614601
  0.3298184199409567  0.8333011285212789  0.4580783068992472
  0.6611490425372543  0.9993947248150036  0.5408950508979706
  0.4990295022253301  0.9970079264774181  0.4149772384123101
  0.3346178073268576  0.6667815525489514  0.8360257644258138
  0.4980430404308605  0.6674469796680920  0.7106367139357489
  0.5012033328374620  0.8339235607087248  0.7920381544596863
  0.6665911278901413  0.8332558476609290  0.1668300522280084
  0.5000097566160344  0.8332107441320885  0.0850663719920386
  0.3344998938644520  0.8331847951644925  0.9607636916105938
  0.6667073569445268  0.0000518953029167  0.0421500239748186
  0.5010037804379378  0.9992535487710804  0.9177716622435259
  0.3321555708961460  0.6676257575583796  0.3335804896747414
  0.5000248712135510  0.6666877308927294  0.2096058971365373
  0.4996089926132679  0.8331534650839508  0.2911775472874413
  0.9990551409720548  0.1664232912465253  0.6580816432508729
  0.8217715404444583  0.1657599297574874  0.5802120572360285
  0.6601697921427805  0.1663982280070299  0.4595976213732847
  0.0013121129639278  0.3292012696087069  0.5410835371494980
  0.8310035220387940  0.3345882553151433  0.4165941024395646
  0.6684425903134091  0.9986669417807141  0.8357645315138650
  0.8380061681095698  0.9996276125416144  0.7112907756230759
  0.8388539891275738  0.1661439915507219  0.7928027977114439
  0.9995857670113732  0.1666012196687207  0.1669787504114121
  0.8331089123881469  0.1666787804501927  0.0852685995890824
  0.6673295129157051  0.1666244483093974  0.9604087914438373
  0.9996961865972285  0.3333602260944702  0.0427564929710546
  0.8340461732205382  0.3338755630974927  0.9181433921778892
  0.6656532680342606  0.9995068782886428  0.3342373628122654
  0.8328915352565727  0.0000256696306003  0.2099869707193483
  0.8322583483085605  0.1666581872849328  0.2917277315730591
  0.9987957617693802  0.5021434395536939  0.6685971480478031
  0.8331522492782601  0.4977132719163137  0.5869472408864632
  0.6656860287665487  0.5008511024795247  0.4598995627211644
  0.9999164600440738  0.6674936117854017  0.5418956125753537
  0.8324367324758010  0.6667447578661065  0.4166767322875947
  0.6684328581046307  0.3341503774500381  0.8357713317767220
  0.8382256941462323  0.3330064404951218  0.7118116985338548
  0.8339507680240953  0.5009476503524369  0.7940729553721526
  0.9996514861991164  0.5001250534339257  0.1670271972615558
  0.8331140193360758  0.5000960003654065  0.0852732783267008
  0.6673147914778730  0.5001224986622352  0.9605611944317510
  0.9996924634889504  0.6666843768673205  0.0425004659990334
  0.8338207811984736  0.6667381954229743  0.9174501461030405
  0.6657760968578220  0.3339502368604494  0.3344017692651832
  0.8329076223248796  0.3332574074082902  0.2099600973958734
  0.8320887653544009  0.5000902469588778  0.2915348347816174
  0.9999357749319203  0.8320886176193196  0.6666624430472867
  0.8331414450091382  0.8356033274884442  0.5856569595812581
  0.6656889173324441  0.8325343016087797  0.4596368316069357
  0.0025674834702109  0.0032695916572269  0.5411679560397163
  0.8309016314429382  0.9986061753491843  0.4165382468014671
  0.6670993886776372  0.6673090500522186  0.8357115017743776
  0.8323501412600962  0.6675739752348602  0.7110396185257534
  0.8339831672179840  0.8329643338901062  0.7929285041069030
  0.9995955870198475  0.8332453788956309  0.1669751518901832
  0.8330995299477721  0.8332212246023346  0.0852336309056575
  0.6673462353753903  0.8332657523986980  0.9605867962411132
  0.9997260870545700  0.9999572847007143  0.0427205973390704
  0.8341205312195590  0.9994233527552211  0.9179846452002079
  0.6659672176354714  0.6664259164704952  0.3351519808931875
  0.8330705856863119  0.6666590630874908  0.2099215266812553
  0.8320672397147815  0.8331732591351236  0.2915404512191186
  0.3323197482176087  0.5002248895080408  0.5651231920970173
 
  0.00000000E+00  0.00000000E+00  0.00000000E+00
  0.00000000E+00  0.00000000E+00  0.00000000E+00
  0.00000000E+00  0.00000000E+00  0.00000000E+00
  0.00000000E+00  0.00000000E+00  0.00000000E+00
  0.00000000E+00  0.00000000E+00  0.00000000E+00
  0.00000000E+00  0.00000000E+00  0.00000000E+00
  0.00000000E+00  0.00000000E+00  0.00000000E+00
  0.00000000E+00  0.00000000E+00  0.00000000E+00
  0.00000000E+00  0.00000000E+00  0.00000000E+00
  0.00000000E+00  0.00000000E+00  0.00000000E+00
  0.00000000E+00  0.00000000E+00  0.00000000E+00
  0.00000000E+00  0.00000000E+00  0.00000000E+00
  0.00000000E+00  0.00000000E+00  0.00000000E+00
  0.00000000E+00  0.00000000E+00  0.00000000E+00
  0.00000000E+00  0.00000000E+00  0.00000000E+00
  0.00000000E+00  0.00000000E+00  0.00000000E+00
  0.00000000E+00  0.00000000E+00  0.00000000E+00
  0.00000000E+00  0.00000000E+00  0.00000000E+00
  0.00000000E+00  0.00000000E+00  0.00000000E+00
  0.00000000E+00  0.00000000E+00  0.00000000E+00
  0.00000000E+00  0.00000000E+00  0.00000000E+00
  0.00000000E+00  0.00000000E+00  0.00000000E+00
  0.00000000E+00  0.00000000E+00  0.00000000E+00
  0.00000000E+00  0.00000000E+00  0.00000000E+00
  0.00000000E+00  0.00000000E+00  0.00000000E+00
  0.00000000E+00  0.00000000E+00  0.00000000E+00
  0.00000000E+00  0.00000000E+00  0.00000000E+00
  0.00000000E+00  0.00000000E+00  0.00000000E+00
  0.00000000E+00  0.00000000E+00  0.00000000E+00
  0.00000000E+00  0.00000000E+00  0.00000000E+00
  0.00000000E+00  0.00000000E+00  0.00000000E+00
  0.00000000E+00  0.00000000E+00  0.00000000E+00
  0.00000000E+00  0.00000000E+00  0.00000000E+00
  0.00000000E+00  0.00000000E+00  0.00000000E+00
  0.00000000E+00  0.00000000E+00  0.00000000E+00
  0.00000000E+00  0.00000000E+00  0.00000000E+00
  0.00000000E+00  0.00000000E+00  0.00000000E+00
  0.00000000E+00  0.00000000E+00  0.00000000E+00
  0.00000000E+00  0.00000000E+00  0.00000000E+00
  0.00000000E+00  0.00000000E+00  0.00000000E+00
  0.00000000E+00  0.00000000E+00  0.00000000E+00
  0.00000000E+00  0.00000000E+00  0.00000000E+00
  0.00000000E+00  0.00000000E+00  0.00000000E+00
  0.00000000E+00  0.00000000E+00  0.00000000E+00
  0.00000000E+00  0.00000000E+00  0.00000000E+00
  0.00000000E+00  0.00000000E+00  0.00000000E+00
  0.00000000E+00  0.00000000E+00  0.00000000E+00
  0.00000000E+00  0.00000000E+00  0.00000000E+00
  0.00000000E+00  0.00000000E+00  0.00000000E+00
  0.00000000E+00  0.00000000E+00  0.00000000E+00
  0.00000000E+00  0.00000000E+00  0.00000000E+00
  0.00000000E+00  0.00000000E+00  0.00000000E+00
  0.00000000E+00  0.00000000E+00  0.00000000E+00
  0.00000000E+00  0.00000000E+00  0.00000000E+00
  0.00000000E+00  0.00000000E+00  0.00000000E+00
  0.00000000E+00  0.00000000E+00  0.00000000E+00
  0.00000000E+00  0.00000000E+00  0.00000000E+00
  0.00000000E+00  0.00000000E+00  0.00000000E+00
  0.00000000E+00  0.00000000E+00  0.00000000E+00
  0.00000000E+00  0.00000000E+00  0.00000000E+00
  0.00000000E+00  0.00000000E+00  0.00000000E+00
  0.00000000E+00  0.00000000E+00  0.00000000E+00
  0.00000000E+00  0.00000000E+00  0.00000000E+00
  0.00000000E+00  0.00000000E+00  0.00000000E+00
  0.00000000E+00  0.00000000E+00  0.00000000E+00
  0.00000000E+00  0.00000000E+00  0.00000000E+00
  0.00000000E+00  0.00000000E+00  0.00000000E+00
  0.00000000E+00  0.00000000E+00  0.00000000E+00
  0.00000000E+00  0.00000000E+00  0.00000000E+00
  0.00000000E+00  0.00000000E+00  0.00000000E+00
  0.00000000E+00  0.00000000E+00  0.00000000E+00
  0.00000000E+00  0.00000000E+00  0.00000000E+00
  0.00000000E+00  0.00000000E+00  0.00000000E+00
  0.00000000E+00  0.00000000E+00  0.00000000E+00
  0.00000000E+00  0.00000000E+00  0.00000000E+00
  0.00000000E+00  0.00000000E+00  0.00000000E+00
  0.00000000E+00  0.00000000E+00  0.00000000E+00
  0.00000000E+00  0.00000000E+00  0.00000000E+00
  0.00000000E+00  0.00000000E+00  0.00000000E+00
  0.00000000E+00  0.00000000E+00  0.00000000E+00
  0.00000000E+00  0.00000000E+00  0.00000000E+00
  0.00000000E+00  0.00000000E+00  0.00000000E+00
  0.00000000E+00  0.00000000E+00  0.00000000E+00
  0.00000000E+00  0.00000000E+00  0.00000000E+00
  0.00000000E+00  0.00000000E+00  0.00000000E+00
  0.00000000E+00  0.00000000E+00  0.00000000E+00
  0.00000000E+00  0.00000000E+00  0.00000000E+00
  0.00000000E+00  0.00000000E+00  0.00000000E+00
  0.00000000E+00  0.00000000E+00  0.00000000E+00
  0.00000000E+00  0.00000000E+00  0.00000000E+00
  0.00000000E+00  0.00000000E+00  0.00000000E+00
  0.00000000E+00  0.00000000E+00  0.00000000E+00
  0.00000000E+00  0.00000000E+00  0.00000000E+00
  0.00000000E+00  0.00000000E+00  0.00000000E+00
  0.00000000E+00  0.00000000E+00  0.00000000E+00
  0.00000000E+00  0.00000000E+00  0.00000000E+00
  0.00000000E+00  0.00000000E+00  0.00000000E+00
  0.00000000E+00  0.00000000E+00  0.00000000E+00
  0.00000000E+00  0.00000000E+00  0.00000000E+00
  0.00000000E+00  0.00000000E+00  0.00000000E+00
  0.00000000E+00  0.00000000E+00  0.00000000E+00
  0.00000000E+00  0.00000000E+00  0.00000000E+00
  0.00000000E+00  0.00000000E+00  0.00000000E+00
  0.00000000E+00  0.00000000E+00  0.00000000E+00
  0.00000000E+00  0.00000000E+00  0.00000000E+00
  0.00000000E+00  0.00000000E+00  0.00000000E+00
  0.00000000E+00  0.00000000E+00  0.00000000E+00
  0.00000000E+00  0.00000000E+00  0.00000000E+00
  0.00000000E+00  0.00000000E+00  0.00000000E+00
  0.00000000E+00  0.00000000E+00  0.00000000E+00
  0.00000000E+00  0.00000000E+00  0.00000000E+00
  0.00000000E+00  0.00000000E+00  0.00000000E+00
  0.00000000E+00  0.00000000E+00  0.00000000E+00
  0.00000000E+00  0.00000000E+00  0.00000000E+00
  0.00000000E+00  0.00000000E+00  0.00000000E+00
  0.00000000E+00  0.00000000E+00  0.00000000E+00
  0.00000000E+00  0.00000000E+00  0.00000000E+00
  0.00000000E+00  0.00000000E+00  0.00000000E+00
  0.00000000E+00  0.00000000E+00  0.00000000E+00
  0.00000000E+00  0.00000000E+00  0.00000000E+00
  0.00000000E+00  0.00000000E+00  0.00000000E+00
  0.00000000E+00  0.00000000E+00  0.00000000E+00
  0.00000000E+00  0.00000000E+00  0.00000000E+00
  0.00000000E+00  0.00000000E+00  0.00000000E+00
  0.00000000E+00  0.00000000E+00  0.00000000E+00
  0.00000000E+00  0.00000000E+00  0.00000000E+00
  0.00000000E+00  0.00000000E+00  0.00000000E+00
  0.00000000E+00  0.00000000E+00  0.00000000E+00
  0.00000000E+00  0.00000000E+00  0.00000000E+00
  0.00000000E+00  0.00000000E+00  0.00000000E+00
  0.00000000E+00  0.00000000E+00  0.00000000E+00
  0.00000000E+00  0.00000000E+00  0.00000000E+00
  0.00000000E+00  0.00000000E+00  0.00000000E+00
  0.00000000E+00  0.00000000E+00  0.00000000E+00
  0.00000000E+00  0.00000000E+00  0.00000000E+00
  0.00000000E+00  0.00000000E+00  0.00000000E+00
  0.00000000E+00  0.00000000E+00  0.00000000E+00
  0.00000000E+00  0.00000000E+00  0.00000000E+00
  0.00000000E+00  0.00000000E+00  0.00000000E+00
  0.00000000E+00  0.00000000E+00  0.00000000E+00
  0.00000000E+00  0.00000000E+00  0.00000000E+00
  0.00000000E+00  0.00000000E+00  0.00000000E+00
  0.00000000E+00  0.00000000E+00  0.00000000E+00
  0.00000000E+00  0.00000000E+00  0.00000000E+00
  0.00000000E+00  0.00000000E+00  0.00000000E+00
  0.00000000E+00  0.00000000E+00  0.00000000E+00
  0.00000000E+00  0.00000000E+00  0.00000000E+00
  0.00000000E+00  0.00000000E+00  0.00000000E+00
  0.00000000E+00  0.00000000E+00  0.00000000E+00
  0.00000000E+00  0.00000000E+00  0.00000000E+00
  0.00000000E+00  0.00000000E+00  0.00000000E+00
  0.00000000E+00  0.00000000E+00  0.00000000E+00
  0.00000000E+00  0.00000000E+00  0.00000000E+00
  0.00000000E+00  0.00000000E+00  0.00000000E+00
  0.00000000E+00  0.00000000E+00  0.00000000E+00
  0.00000000E+00  0.00000000E+00  0.00000000E+00
  0.00000000E+00  0.00000000E+00  0.00000000E+00
  0.00000000E+00  0.00000000E+00  0.00000000E+00
  0.00000000E+00  0.00000000E+00  0.00000000E+00
  0.00000000E+00  0.00000000E+00  0.00000000E+00
  0.00000000E+00  0.00000000E+00  0.00000000E+00
  0.00000000E+00  0.00000000E+00  0.00000000E+00
  0.00000000E+00  0.00000000E+00  0.00000000E+00
  0.00000000E+00  0.00000000E+00  0.00000000E+00
  0.00000000E+00  0.00000000E+00  0.00000000E+00
  0.00000000E+00  0.00000000E+00  0.00000000E+00
  0.00000000E+00  0.00000000E+00  0.00000000E+00
  0.00000000E+00  0.00000000E+00  0.00000000E+00
  0.00000000E+00  0.00000000E+00  0.00000000E+00
  0.00000000E+00  0.00000000E+00  0.00000000E+00
  0.00000000E+00  0.00000000E+00  0.00000000E+00
  0.00000000E+00  0.00000000E+00  0.00000000E+00
  0.00000000E+00  0.00000000E+00  0.00000000E+00
  0.00000000E+00  0.00000000E+00  0.00000000E+00
  0.00000000E+00  0.00000000E+00  0.00000000E+00
  0.00000000E+00  0.00000000E+00  0.00000000E+00
  0.00000000E+00  0.00000000E+00  0.00000000E+00
  0.00000000E+00  0.00000000E+00  0.00000000E+00
  0.00000000E+00  0.00000000E+00  0.00000000E+00
  0.00000000E+00  0.00000000E+00  0.00000000E+00
  0.00000000E+00  0.00000000E+00  0.00000000E+00
  0.00000000E+00  0.00000000E+00  0.00000000E+00
  0.00000000E+00  0.00000000E+00  0.00000000E+00
  0.00000000E+00  0.00000000E+00  0.00000000E+00
  0.00000000E+00  0.00000000E+00  0.00000000E+00
  0.00000000E+00  0.00000000E+00  0.00000000E+00
  0.00000000E+00  0.00000000E+00  0.00000000E+00
  0.00000000E+00  0.00000000E+00  0.00000000E+00
  0.00000000E+00  0.00000000E+00  0.00000000E+00
  0.00000000E+00  0.00000000E+00  0.00000000E+00
  0.00000000E+00  0.00000000E+00  0.00000000E+00
  0.00000000E+00  0.00000000E+00  0.00000000E+00
  0.00000000E+00  0.00000000E+00  0.00000000E+00
  0.00000000E+00  0.00000000E+00  0.00000000E+00
  0.00000000E+00  0.00000000E+00  0.00000000E+00
  0.00000000E+00  0.00000000E+00  0.00000000E+00
  0.00000000E+00  0.00000000E+00  0.00000000E+00
  0.00000000E+00  0.00000000E+00  0.00000000E+00
  0.00000000E+00  0.00000000E+00  0.00000000E+00
  0.00000000E+00  0.00000000E+00  0.00000000E+00
  0.00000000E+00  0.00000000E+00  0.00000000E+00
  0.00000000E+00  0.00000000E+00  0.00000000E+00
  0.00000000E+00  0.00000000E+00  0.00000000E+00
  0.00000000E+00  0.00000000E+00  0.00000000E+00
  0.00000000E+00  0.00000000E+00  0.00000000E+00
  0.00000000E+00  0.00000000E+00  0.00000000E+00
  0.00000000E+00  0.00000000E+00  0.00000000E+00
  0.00000000E+00  0.00000000E+00  0.00000000E+00
  0.00000000E+00  0.00000000E+00  0.00000000E+00
  0.00000000E+00  0.00000000E+00  0.00000000E+00
  0.00000000E+00  0.00000000E+00  0.00000000E+00
  0.00000000E+00  0.00000000E+00  0.00000000E+00
  0.00000000E+00  0.00000000E+00  0.00000000E+00
  0.00000000E+00  0.00000000E+00  0.00000000E+00
  0.00000000E+00  0.00000000E+00  0.00000000E+00
