Ti4 O8                                  
   1.00000000000000     
    11.5607959665632993    0.0000000000000000    0.0000000000000000
     0.0000000000000000   11.5607959665632993    0.0000000000000000
     0.0000000000000000    0.0000000000000000   19.2862138499999993
   Ti   O    Co
    71   143     1
Direct
  0.9958139704918594  0.1668981716177100  0.5565889316820076
  0.3337624647440549  0.3410845295418810  0.4393510835259917
  0.1675441798424728  0.9940584531339240  0.8153379108322127
  0.1746163442813113  0.1677055670653615  0.6958350481880231
  0.0001559329103316  0.1666986816288727  0.0642299198703640
  0.3347562283663237  0.3332899081580862  0.9402519407551750
  0.1657071495113982  0.9994838376681088  0.3132670689785328
  0.1666627834004615  0.1668214075633045  0.1891394048946893
  0.0022796266376091  0.5006721084236432  0.5663989143548420
  0.3323589113439596  0.6658209334768941  0.4405235704158201
  0.1669890367835478  0.3401225051314754  0.8154294113301006
  0.1772041975163177  0.5011770844563372  0.6863383896935460
  0.0002705391644469  0.5001277002360709  0.0642177244338669
  0.3340108837738001  0.6665074312058650  0.9393910995624424
  0.1669574751554634  0.3327919435397746  0.3139254464405568
  0.1666082184147797  0.5001059930553140  0.1892424355224236
  0.0000927616349031  0.8320147691905504  0.5651160388970951
  0.3344342957778963  0.9984779157665642  0.4371587934049259
  0.1665473718577530  0.6657772513311500  0.8143738362143083
  0.1697871400472408  0.8326539999504874  0.6878356903357385
  0.0001657043658696  0.8330865761833763  0.0641652043170353
  0.3344083982492663  0.9997803135055037  0.9404748091198272
  0.1676705479841303  0.6663696617925297  0.3139926551199963
  0.1665787234388034  0.8328721884798256  0.1890108787348268
  0.3048944027448144  0.1655692600087733  0.5535606081318107
  0.6656723396099693  0.3383608469255392  0.4368136173397019
  0.5004636576526877  0.9960967741215470  0.8163247933856397
  0.4810968809516538  0.1667716818301557  0.6976581750864312
  0.3330514039633030  0.1667718469622272  0.0644994842354976
  0.6675586558829352  0.3331107749280733  0.9404875235326031
  0.4985911030078114  0.9996508945641693  0.3123924152490076
  0.5000596356916986  0.1670160997121144  0.1886686099502413
  0.6654043585955591  0.6663426667256687  0.4378880755194317
  0.5002435197290680  0.3394000044552854  0.8160991509983759
  0.5023358854406155  0.5005764971180113  0.6878968195481363
  0.3331578004431677  0.5003827338586717  0.0645288098094312
  0.6679555073762415  0.6665236128962917  0.9394613125087545
  0.4976352376700461  0.3327845909950256  0.3131813008384654
  0.5000461692318794  0.5003845514823340  0.1889660460234310
  0.3356811039263334  0.8295880660965693  0.5624536234001525
  0.6664619497590607  0.9968613820692482  0.4366332860239055
  0.5005090335941986  0.6663288847967976  0.8151586448369628
  0.5003799498926682  0.8326708604414321  0.6893718892872300
  0.3331454153547782  0.8327668637012877  0.0644747031934472
  0.6674988640191089  0.9998197860436733  0.9405994603308798
  0.4976337417862382  0.6664307877600280  0.3139721831990130
  0.5000750287534501  0.8325399359084287  0.1887487517054396
  0.6873135138287267  0.1670767575360301  0.5559328549943885
  0.9996196722021153  0.3404550262378834  0.4372985717787756
  0.8328835784644397  0.9971744201779771  0.8161704817334297
  0.8630441917763889  0.1665076537479777  0.6974686561920933
  0.6668010363657544  0.1667360422518200  0.0646061074680162
  0.0016136809309444  0.3331879348331981  0.9396583033398969
  0.8321098339880280  0.9998825203380051  0.3126365623240943
  0.8337652778226214  0.1669727052196066  0.1887943686531770
  0.6642261957258242  0.5004376552000522  0.5650125307128988
  0.9994857944977014  0.6663901947569499  0.4381467967237640
  0.8324453038437625  0.3375190906209511  0.8159181946053380
  0.8368680955637799  0.4999262446493162  0.6876526319719005
  0.6666452833574539  0.5005769292477851  0.0645305384882349
  0.0009405601225367  0.6665969985731053  0.9394753898747368
  0.8321324520626732  0.3334279952246533  0.3131918299982246
  0.8336731423382062  0.5002572962334071  0.1887831869556607
  0.6671925111970438  0.8325408276319948  0.5633660119993920
  0.9998349608030566  0.9939500693526426  0.4371197179725854
  0.8337893642007970  0.6658412164088787  0.8144852979977841
  0.8329047457689001  0.8328267655961810  0.6891005548261404
  0.6667704321138572  0.8326786783309430  0.0645034803045377
  0.0018653817445795  0.0000005775165519  0.9397642111056044
  0.8327036264635765  0.6665448248433563  0.3138376790133321
  0.8336709894628100  0.8327310710883395  0.1887673809341592
  0.3346242573831972  0.1654698075374696  0.6584453403612613
  0.1558743645820755  0.1669792853168488  0.5815689550756957
  0.9957421375361406  0.1666274474125231  0.4600888376528331
  0.3434164263836763  0.3217738310419449  0.5397247209010914
  0.1644926413208196  0.3352122225466232  0.4170141806872820
  0.0022072040222696  0.9989393642352411  0.8361083928819397
  0.1728027418009219  0.9993238890089344  0.7116926521356177
  0.1731625168325621  0.1663483495172215  0.7927561500355864
  0.3332624952636394  0.1666616296426326  0.1674018708068985
  0.1666997472331246  0.1667059258458607  0.0856680810866166
  0.0010169264514275  0.1666115258834751  0.9608084365147178
  0.3332671594079955  0.3333547989993733  0.0430980112747434
  0.1676666769137185  0.3336911684119315  0.9182221463952374
  0.9988031682841623  0.9995871892676362  0.3345011315179605
  0.1663713533068645  0.9999413091546856  0.2101642029346635
  0.1654947136346578  0.1664584814341623  0.2921290303755342
  0.3349633966578622  0.5009460521006659  0.6719440953174143
  0.1624707900539732  0.4987881044905293  0.5869778412621898
  0.9995439435988658  0.5012573837809029  0.4602158643536143
  0.3359459604500259  0.6728933670695341  0.5409606888957939
  0.1660403317657639  0.6673907713562883  0.4168890440942405
  0.0020656869400568  0.3339355270021471  0.8360793162148923
  0.1729922667279240  0.3326770224822226  0.7115953080080075
  0.1671026880050235  0.5006429837413435  0.7938176357353086
  0.3332883615878188  0.5001109007915900  0.1674205129768893
  0.1666928674219506  0.5000300340755430  0.0856937461863581
  0.0011995706561407  0.5000400836199788  0.9609446315446135
  0.3332825329920794  0.6666119200081653  0.0428624290181006
  0.1673988274150204  0.6666049023414331  0.9176656307332252
  0.9991868053282715  0.3339366222049449  0.3349862554447540
  0.1666133436720614  0.3331937631882980  0.2105136130949035
  0.1660171360745721  0.5000932846086314  0.2920560644970962
  0.3347618626761388  0.8315211479666758  0.6673170088688281
  0.1671102366986474  0.8366095173694248  0.5859280548370620
  0.9991172072365231  0.8327038402861930  0.4601139140753006
  0.3409782381572342  0.0038179700039649  0.5401546774191530
  0.1640087562149546  0.9970195132241102  0.4162588919089742
  0.0007344719201043  0.6670428111842952  0.8360795899029938
  0.1672264603475853  0.6675992633858598  0.7111299470220658
  0.1673674926778261  0.8327851218117104  0.7931842259762121
  0.3332723848149683  0.8330283434220149  0.1674051609346208
  0.1666832722458409  0.8331313328263192  0.0855766240358733
  0.0011938242659895  0.8332781807245127  0.9609528252155144
  0.3332891353892862  0.9999093523682774  0.0431119494738113
  0.1677178772955372  0.9996427270046482  0.9183777264215962
  0.9992805364321455  0.6664334180800182  0.3356601092561959
  0.1666082548917700  0.6665247677875783  0.2102860455298270
  0.1652338131002082  0.8331389288377480  0.2917706346083051
  0.5877182804925312  0.1663373388092495  0.6285100064336859
  0.3209155334894831  0.1639339991925155  0.4548737518642980
  0.6733852916674437  0.3336373342811498  0.5391567055231619
  0.4996289238509988  0.3328208049686552  0.4161432272901777
  0.3345037542570921  0.9971401548478624  0.8373993391056160
  0.4947420749868456  0.9989404007166414  0.7141070284710338
  0.4994909985133447  0.1660927090428004  0.7959704003313135
  0.6668430914427645  0.1667496511742144  0.1672999333947942
  0.5001426690493531  0.1667035682609210  0.0855315265143801
  0.3340960921074441  0.1666222676404274  0.9611611813571201
  0.6670176796271576  0.3333110510082804  0.0429639433303421
  0.5013161682941458  0.3339166079531068  0.9194910536560670
  0.3325209086232803  0.9990086345873834  0.3337945252439596
  0.4999655213937686  0.9999370631588391  0.2097773093323951
  0.4993278521367088  0.1665899011168221  0.2916130748984145
  0.6675402501086083  0.4973636485221959  0.6691457829181999
  0.5059783160889708  0.5002727619342622  0.5874878733131510
  0.3317239453754368  0.5000389503602705  0.4565266163464941
  0.6678887334794084  0.6678764008055964  0.5417972703128768
  0.4988618729378373  0.6675127026477128  0.4164655024665720
  0.3346275547728652  0.3359605794854588  0.8373539168918498
  0.4952122312396199  0.3337723666801296  0.7144579848851791
  0.5035399668969376  0.5012515567957152  0.7950707276875306
  0.6667914804513515  0.5001243676838101  0.1673471372570106
  0.5001347531277318  0.5001358579790036  0.0856319021140948
  0.3339680837082000  0.5002228607619656  0.9612442090853293
  0.6669099515914496  0.6666576262959722  0.0429530743285937
  0.5010198186532122  0.6668078345541133  0.9182073308788787
  0.3324922170706444  0.3331480304298324  0.3343261175886454
  0.4998133561981177  0.3333249297194811  0.2099503190474792
  0.4988112991844389  0.5001545253035360  0.2918482660549131
  0.6672856300165719  0.8354496629158916  0.6677795551190826
  0.5024567988013047  0.8357394610733593  0.5862803653531046
  0.3316006567655663  0.8349809750309305  0.4592952576753646
  0.6735029208722736  0.9998223432429327  0.5390559821047773
  0.4995601867638868  0.0006115790683268  0.4158446932354138
  0.3342413803265600  0.6667469320277988  0.8363141943906243
  0.5019414253901289  0.6671690807249746  0.7117841435329453
  0.5025989249902736  0.8323982086849284  0.7939118121066500
  0.6668530400345745  0.8330627441057743  0.1672904445569756
  0.5001365275667524  0.8330967392110935  0.0855573655374258
  0.3338757292383292  0.8330639386046386  0.9612674900973772
  0.6669588450504307  0.9999749917577745  0.0429537824045738
  0.5012947685796760  0.9993165344432313  0.9193968256239415
  0.3324807431891870  0.6675449663311355  0.3344091490895948
  0.5000146153509846  0.6666028804834312  0.2100239222054512
  0.4995589691914120  0.8331852178656547  0.2916540021490803
  0.0112217960526024  0.1661689705847564  0.6736490126492782
  0.8344704110671373  0.1666927004310139  0.5947630586685619
  0.6670172100704406  0.1667012899591072  0.4572799809414860
  0.9944848487608482  0.3334115586178825  0.5415595960625481
  0.8324969776396713  0.3359328899266671  0.4159216710674585
  0.6678735134009983  0.9996624778881369  0.8366925007155217
  0.8311109585444072  0.0031012015069294  0.7115675864005269
  0.8400643741366878  0.1662966689564271  0.7958793897380048
  0.0001032648507362  0.1667319030840417  0.1672496364233780
  0.8336442426688251  0.1666785660150509  0.0855326925910092
  0.6682513607484495  0.1666054481465906  0.9611683615028355
  0.0003556831352611  0.3332417805025614  0.0425293430524221
  0.8346045784247096  0.3341283872356016  0.9181927033747712
  0.6660078620184819  0.9992718484152476  0.3336667628944241
  0.8335543911864818  0.9999547484909073  0.2098308062573508
  0.8327653889310085  0.1667670327633175  0.2917803332882443
  0.9986770241066196  0.4979120045578753  0.6689732643826858
  0.8332368503065766  0.5023519176985758  0.5875194832359512
  0.6637925903356106  0.5013922345320054  0.4595043887650263
  0.0004183255182468  0.6678587000216254  0.5424231810318716
  0.8326837446916926  0.6669497164440585  0.4168982427389025
  0.6679237642305367  0.3331158788264972  0.8367311510030362
  0.8314133697073416  0.3298547563938357  0.7119563466980097
  0.8347140136091369  0.4999098088064429  0.7936980393297546
  0.0001563028460865  0.4999858256514287  0.1672898824283848
  0.8336203636962409  0.5001335611535325  0.0855706257538600
  0.6679415467018117  0.5001946546044209  0.9611779317988862
  0.0001939982236649  0.6666295273393743  0.0425878393282346
  0.8345806028241753  0.6666454018099728  0.9179077912521905
  0.6659930358968111  0.3342706716685981  0.3339476260264860
  0.8335915381612722  0.3334226949654280  0.2098930710008418
  0.8330437391488275  0.5002601746340432  0.2917503806266382
  0.0003677191584117  0.8352321263248328  0.6674426996118044
  0.8334541114924576  0.8324575247601871  0.5864834154380674
  0.6641907786231513  0.8328331918876088  0.4595508991814725
  0.9949953412503234  0.9997164810898056  0.5413492173616419
  0.8324354550611730  0.9978140671726479  0.4157279998036856
  0.6684586645244224  0.6672748374086339  0.8366283647659074
  0.8333380687656415  0.6672976578041840  0.7113093536739257
  0.8347515559323639  0.8339380619501355  0.7926402376110815
  0.0000663584242844  0.8331316442999466  0.1672026705520793
  0.8335963345737127  0.8331672872633504  0.0854825037047604
  0.6680287305354682  0.8331835816171491  0.9611957294318145
  0.0003750709383468  0.0000453807460019  0.0425491991235134
  0.8346202511446279  0.9991925487791207  0.9181231786359092
  0.6661402388132913  0.6664728896215877  0.3352331856410231
  0.8335647394049559  0.6666227224347168  0.2101338021428845
  0.8329722681567517  0.8330119692505846  0.2916775107301817
  0.3354487646512680  0.4967579430835229  0.5631021573134518
 
  0.00000000E+00  0.00000000E+00  0.00000000E+00
  0.00000000E+00  0.00000000E+00  0.00000000E+00
  0.00000000E+00  0.00000000E+00  0.00000000E+00
  0.00000000E+00  0.00000000E+00  0.00000000E+00
  0.00000000E+00  0.00000000E+00  0.00000000E+00
  0.00000000E+00  0.00000000E+00  0.00000000E+00
  0.00000000E+00  0.00000000E+00  0.00000000E+00
  0.00000000E+00  0.00000000E+00  0.00000000E+00
  0.00000000E+00  0.00000000E+00  0.00000000E+00
  0.00000000E+00  0.00000000E+00  0.00000000E+00
  0.00000000E+00  0.00000000E+00  0.00000000E+00
  0.00000000E+00  0.00000000E+00  0.00000000E+00
  0.00000000E+00  0.00000000E+00  0.00000000E+00
  0.00000000E+00  0.00000000E+00  0.00000000E+00
  0.00000000E+00  0.00000000E+00  0.00000000E+00
  0.00000000E+00  0.00000000E+00  0.00000000E+00
  0.00000000E+00  0.00000000E+00  0.00000000E+00
  0.00000000E+00  0.00000000E+00  0.00000000E+00
  0.00000000E+00  0.00000000E+00  0.00000000E+00
  0.00000000E+00  0.00000000E+00  0.00000000E+00
  0.00000000E+00  0.00000000E+00  0.00000000E+00
  0.00000000E+00  0.00000000E+00  0.00000000E+00
  0.00000000E+00  0.00000000E+00  0.00000000E+00
  0.00000000E+00  0.00000000E+00  0.00000000E+00
  0.00000000E+00  0.00000000E+00  0.00000000E+00
  0.00000000E+00  0.00000000E+00  0.00000000E+00
  0.00000000E+00  0.00000000E+00  0.00000000E+00
  0.00000000E+00  0.00000000E+00  0.00000000E+00
  0.00000000E+00  0.00000000E+00  0.00000000E+00
  0.00000000E+00  0.00000000E+00  0.00000000E+00
  0.00000000E+00  0.00000000E+00  0.00000000E+00
  0.00000000E+00  0.00000000E+00  0.00000000E+00
  0.00000000E+00  0.00000000E+00  0.00000000E+00
  0.00000000E+00  0.00000000E+00  0.00000000E+00
  0.00000000E+00  0.00000000E+00  0.00000000E+00
  0.00000000E+00  0.00000000E+00  0.00000000E+00
  0.00000000E+00  0.00000000E+00  0.00000000E+00
  0.00000000E+00  0.00000000E+00  0.00000000E+00
  0.00000000E+00  0.00000000E+00  0.00000000E+00
  0.00000000E+00  0.00000000E+00  0.00000000E+00
  0.00000000E+00  0.00000000E+00  0.00000000E+00
  0.00000000E+00  0.00000000E+00  0.00000000E+00
  0.00000000E+00  0.00000000E+00  0.00000000E+00
  0.00000000E+00  0.00000000E+00  0.00000000E+00
  0.00000000E+00  0.00000000E+00  0.00000000E+00
  0.00000000E+00  0.00000000E+00  0.00000000E+00
  0.00000000E+00  0.00000000E+00  0.00000000E+00
  0.00000000E+00  0.00000000E+00  0.00000000E+00
  0.00000000E+00  0.00000000E+00  0.00000000E+00
  0.00000000E+00  0.00000000E+00  0.00000000E+00
  0.00000000E+00  0.00000000E+00  0.00000000E+00
  0.00000000E+00  0.00000000E+00  0.00000000E+00
  0.00000000E+00  0.00000000E+00  0.00000000E+00
  0.00000000E+00  0.00000000E+00  0.00000000E+00
  0.00000000E+00  0.00000000E+00  0.00000000E+00
  0.00000000E+00  0.00000000E+00  0.00000000E+00
  0.00000000E+00  0.00000000E+00  0.00000000E+00
  0.00000000E+00  0.00000000E+00  0.00000000E+00
  0.00000000E+00  0.00000000E+00  0.00000000E+00
  0.00000000E+00  0.00000000E+00  0.00000000E+00
  0.00000000E+00  0.00000000E+00  0.00000000E+00
  0.00000000E+00  0.00000000E+00  0.00000000E+00
  0.00000000E+00  0.00000000E+00  0.00000000E+00
  0.00000000E+00  0.00000000E+00  0.00000000E+00
  0.00000000E+00  0.00000000E+00  0.00000000E+00
  0.00000000E+00  0.00000000E+00  0.00000000E+00
  0.00000000E+00  0.00000000E+00  0.00000000E+00
  0.00000000E+00  0.00000000E+00  0.00000000E+00
  0.00000000E+00  0.00000000E+00  0.00000000E+00
  0.00000000E+00  0.00000000E+00  0.00000000E+00
  0.00000000E+00  0.00000000E+00  0.00000000E+00
  0.00000000E+00  0.00000000E+00  0.00000000E+00
  0.00000000E+00  0.00000000E+00  0.00000000E+00
  0.00000000E+00  0.00000000E+00  0.00000000E+00
  0.00000000E+00  0.00000000E+00  0.00000000E+00
  0.00000000E+00  0.00000000E+00  0.00000000E+00
  0.00000000E+00  0.00000000E+00  0.00000000E+00
  0.00000000E+00  0.00000000E+00  0.00000000E+00
  0.00000000E+00  0.00000000E+00  0.00000000E+00
  0.00000000E+00  0.00000000E+00  0.00000000E+00
  0.00000000E+00  0.00000000E+00  0.00000000E+00
  0.00000000E+00  0.00000000E+00  0.00000000E+00
  0.00000000E+00  0.00000000E+00  0.00000000E+00
  0.00000000E+00  0.00000000E+00  0.00000000E+00
  0.00000000E+00  0.00000000E+00  0.00000000E+00
  0.00000000E+00  0.00000000E+00  0.00000000E+00
  0.00000000E+00  0.00000000E+00  0.00000000E+00
  0.00000000E+00  0.00000000E+00  0.00000000E+00
  0.00000000E+00  0.00000000E+00  0.00000000E+00
  0.00000000E+00  0.00000000E+00  0.00000000E+00
  0.00000000E+00  0.00000000E+00  0.00000000E+00
  0.00000000E+00  0.00000000E+00  0.00000000E+00
  0.00000000E+00  0.00000000E+00  0.00000000E+00
  0.00000000E+00  0.00000000E+00  0.00000000E+00
  0.00000000E+00  0.00000000E+00  0.00000000E+00
  0.00000000E+00  0.00000000E+00  0.00000000E+00
  0.00000000E+00  0.00000000E+00  0.00000000E+00
  0.00000000E+00  0.00000000E+00  0.00000000E+00
  0.00000000E+00  0.00000000E+00  0.00000000E+00
  0.00000000E+00  0.00000000E+00  0.00000000E+00
  0.00000000E+00  0.00000000E+00  0.00000000E+00
  0.00000000E+00  0.00000000E+00  0.00000000E+00
  0.00000000E+00  0.00000000E+00  0.00000000E+00
  0.00000000E+00  0.00000000E+00  0.00000000E+00
  0.00000000E+00  0.00000000E+00  0.00000000E+00
  0.00000000E+00  0.00000000E+00  0.00000000E+00
  0.00000000E+00  0.00000000E+00  0.00000000E+00
  0.00000000E+00  0.00000000E+00  0.00000000E+00
  0.00000000E+00  0.00000000E+00  0.00000000E+00
  0.00000000E+00  0.00000000E+00  0.00000000E+00
  0.00000000E+00  0.00000000E+00  0.00000000E+00
  0.00000000E+00  0.00000000E+00  0.00000000E+00
  0.00000000E+00  0.00000000E+00  0.00000000E+00
  0.00000000E+00  0.00000000E+00  0.00000000E+00
  0.00000000E+00  0.00000000E+00  0.00000000E+00
  0.00000000E+00  0.00000000E+00  0.00000000E+00
  0.00000000E+00  0.00000000E+00  0.00000000E+00
  0.00000000E+00  0.00000000E+00  0.00000000E+00
  0.00000000E+00  0.00000000E+00  0.00000000E+00
  0.00000000E+00  0.00000000E+00  0.00000000E+00
  0.00000000E+00  0.00000000E+00  0.00000000E+00
  0.00000000E+00  0.00000000E+00  0.00000000E+00
  0.00000000E+00  0.00000000E+00  0.00000000E+00
  0.00000000E+00  0.00000000E+00  0.00000000E+00
  0.00000000E+00  0.00000000E+00  0.00000000E+00
  0.00000000E+00  0.00000000E+00  0.00000000E+00
  0.00000000E+00  0.00000000E+00  0.00000000E+00
  0.00000000E+00  0.00000000E+00  0.00000000E+00
  0.00000000E+00  0.00000000E+00  0.00000000E+00
  0.00000000E+00  0.00000000E+00  0.00000000E+00
  0.00000000E+00  0.00000000E+00  0.00000000E+00
  0.00000000E+00  0.00000000E+00  0.00000000E+00
  0.00000000E+00  0.00000000E+00  0.00000000E+00
  0.00000000E+00  0.00000000E+00  0.00000000E+00
  0.00000000E+00  0.00000000E+00  0.00000000E+00
  0.00000000E+00  0.00000000E+00  0.00000000E+00
  0.00000000E+00  0.00000000E+00  0.00000000E+00
  0.00000000E+00  0.00000000E+00  0.00000000E+00
  0.00000000E+00  0.00000000E+00  0.00000000E+00
  0.00000000E+00  0.00000000E+00  0.00000000E+00
  0.00000000E+00  0.00000000E+00  0.00000000E+00
  0.00000000E+00  0.00000000E+00  0.00000000E+00
  0.00000000E+00  0.00000000E+00  0.00000000E+00
  0.00000000E+00  0.00000000E+00  0.00000000E+00
  0.00000000E+00  0.00000000E+00  0.00000000E+00
  0.00000000E+00  0.00000000E+00  0.00000000E+00
  0.00000000E+00  0.00000000E+00  0.00000000E+00
  0.00000000E+00  0.00000000E+00  0.00000000E+00
  0.00000000E+00  0.00000000E+00  0.00000000E+00
  0.00000000E+00  0.00000000E+00  0.00000000E+00
  0.00000000E+00  0.00000000E+00  0.00000000E+00
  0.00000000E+00  0.00000000E+00  0.00000000E+00
  0.00000000E+00  0.00000000E+00  0.00000000E+00
  0.00000000E+00  0.00000000E+00  0.00000000E+00
  0.00000000E+00  0.00000000E+00  0.00000000E+00
  0.00000000E+00  0.00000000E+00  0.00000000E+00
  0.00000000E+00  0.00000000E+00  0.00000000E+00
  0.00000000E+00  0.00000000E+00  0.00000000E+00
  0.00000000E+00  0.00000000E+00  0.00000000E+00
  0.00000000E+00  0.00000000E+00  0.00000000E+00
  0.00000000E+00  0.00000000E+00  0.00000000E+00
  0.00000000E+00  0.00000000E+00  0.00000000E+00
  0.00000000E+00  0.00000000E+00  0.00000000E+00
  0.00000000E+00  0.00000000E+00  0.00000000E+00
  0.00000000E+00  0.00000000E+00  0.00000000E+00
  0.00000000E+00  0.00000000E+00  0.00000000E+00
  0.00000000E+00  0.00000000E+00  0.00000000E+00
  0.00000000E+00  0.00000000E+00  0.00000000E+00
  0.00000000E+00  0.00000000E+00  0.00000000E+00
  0.00000000E+00  0.00000000E+00  0.00000000E+00
  0.00000000E+00  0.00000000E+00  0.00000000E+00
  0.00000000E+00  0.00000000E+00  0.00000000E+00
  0.00000000E+00  0.00000000E+00  0.00000000E+00
  0.00000000E+00  0.00000000E+00  0.00000000E+00
  0.00000000E+00  0.00000000E+00  0.00000000E+00
  0.00000000E+00  0.00000000E+00  0.00000000E+00
  0.00000000E+00  0.00000000E+00  0.00000000E+00
  0.00000000E+00  0.00000000E+00  0.00000000E+00
  0.00000000E+00  0.00000000E+00  0.00000000E+00
  0.00000000E+00  0.00000000E+00  0.00000000E+00
  0.00000000E+00  0.00000000E+00  0.00000000E+00
  0.00000000E+00  0.00000000E+00  0.00000000E+00
  0.00000000E+00  0.00000000E+00  0.00000000E+00
  0.00000000E+00  0.00000000E+00  0.00000000E+00
  0.00000000E+00  0.00000000E+00  0.00000000E+00
  0.00000000E+00  0.00000000E+00  0.00000000E+00
  0.00000000E+00  0.00000000E+00  0.00000000E+00
  0.00000000E+00  0.00000000E+00  0.00000000E+00
  0.00000000E+00  0.00000000E+00  0.00000000E+00
  0.00000000E+00  0.00000000E+00  0.00000000E+00
  0.00000000E+00  0.00000000E+00  0.00000000E+00
  0.00000000E+00  0.00000000E+00  0.00000000E+00
  0.00000000E+00  0.00000000E+00  0.00000000E+00
  0.00000000E+00  0.00000000E+00  0.00000000E+00
  0.00000000E+00  0.00000000E+00  0.00000000E+00
  0.00000000E+00  0.00000000E+00  0.00000000E+00
  0.00000000E+00  0.00000000E+00  0.00000000E+00
  0.00000000E+00  0.00000000E+00  0.00000000E+00
  0.00000000E+00  0.00000000E+00  0.00000000E+00
  0.00000000E+00  0.00000000E+00  0.00000000E+00
  0.00000000E+00  0.00000000E+00  0.00000000E+00
  0.00000000E+00  0.00000000E+00  0.00000000E+00
  0.00000000E+00  0.00000000E+00  0.00000000E+00
  0.00000000E+00  0.00000000E+00  0.00000000E+00
  0.00000000E+00  0.00000000E+00  0.00000000E+00
  0.00000000E+00  0.00000000E+00  0.00000000E+00
  0.00000000E+00  0.00000000E+00  0.00000000E+00
  0.00000000E+00  0.00000000E+00  0.00000000E+00
  0.00000000E+00  0.00000000E+00  0.00000000E+00
  0.00000000E+00  0.00000000E+00  0.00000000E+00
  0.00000000E+00  0.00000000E+00  0.00000000E+00
  0.00000000E+00  0.00000000E+00  0.00000000E+00
  0.00000000E+00  0.00000000E+00  0.00000000E+00
  0.00000000E+00  0.00000000E+00  0.00000000E+00
  0.00000000E+00  0.00000000E+00  0.00000000E+00
