Ti4 O8                                  
   1.00000000000000     
    11.5607959665632993    0.0000000000000000    0.0000000000000000
     0.0000000000000000   11.5607959665632993    0.0000000000000000
     0.0000000000000000    0.0000000000000000   19.2862138499999993
   Ti   O    Co
    71   143     1
Direct
  0.0002158775181513  0.1670738488572638  0.5645290525601965
  0.3315714782704617  0.3308949133439896  0.4419993951102654
  0.1677936373505347  0.0035661823381901  0.8127610500755651
  0.1672621172350119  0.1666485527138875  0.6885974722573280
  0.0285033769368397  0.1671295345121564  0.0556994135063320
  0.3309714837649622  0.3380813246368746  0.9362189162181593
  0.1698292218313568  0.9954778288812705  0.3169590480360398
  0.1597716184161939  0.1612456498957755  0.1962873146314195
  0.0024296662273287  0.5003872832378988  0.5661266347535872
  0.3327304770834161  0.6584071184376654  0.4416893229340673
  0.1667800981831320  0.3384217452568237  0.8123671810063726
  0.1732965217813955  0.5002826901102750  0.6868834382263458
  0.9977535281322716  0.5010389635243513  0.0640428676614277
  0.3363970121374820  0.6656274508947888  0.9374875238107307
  0.1699121321026311  0.3396029300044816  0.3164150409075859
  0.1657152644607933  0.4957832111460263  0.1886690077709758
  0.9998470735033180  0.8329768387429084  0.5645148014289276
  0.3321263856575669  0.9955297053493979  0.4415716857855685
  0.1658415106888071  0.6692061607687094  0.8128428354065491
  0.1677841276898491  0.8326902930832745  0.6886011132034540
  0.9977401256678746  0.8339850744349349  0.0640932002754155
  0.3321405258974224  0.9930950166522408  0.9372402228435988
  0.1622846482380567  0.6676378850493165  0.3159130115128690
  0.1659294966705218  0.8273177587799978  0.1885934610628368
  0.3331032148760116  0.1697004900421959  0.5629133227759411
  0.6652724152061822  0.3341222903367012  0.4411404524626334
  0.5004631238144341  0.0032879910740604  0.8122827206813596
  0.4986388525115331  0.1667518134518673  0.6883995079209910
  0.3390250283091447  0.1712308958028359  0.0568251838139702
  0.6643207817235677  0.3365306979912006  0.9363941539151384
  0.5026557495622157  0.9975701851936449  0.3162706215483837
  0.4704384478374308  0.1659762338387409  0.1975291591182256
  0.6652329599427631  0.6653281858027142  0.4400256326282559
  0.5012456250718884  0.3382850700949405  0.8120142603656504
  0.4987978349701834  0.5003145499908541  0.6866806716973386
  0.3328843690411034  0.5047681342107779  0.0649466664814469
  0.6698898169484480  0.6660756608499838  0.9374222374925409
  0.5021545621402907  0.3363734541552219  0.3167690956538891
  0.5012487342092129  0.4989056103043126  0.1893682162889831
  0.3326099073527118  0.8309873999391755  0.5629808745999867
  0.6650551969360095  0.9997252386316404  0.4410265018881887
  0.4999212608723482  0.6691015385346688  0.8127618972307360
  0.4993764151690669  0.8328465830298626  0.6883365746801076
  0.3328803052893505  0.8360882309829805  0.0649498051022803
  0.6652593906072113  0.9954015039875301  0.9363510145677978
  0.4931594122224823  0.6671727642485479  0.3154606826742068
  0.5014300445023494  0.8313616592986506  0.1892867916448964
  0.6660535143778006  0.1666137776117012  0.5646501624953189
  0.9986316746898041  0.3328590059730487  0.4408312170709507
  0.8336399425515921  0.0032906593565301  0.8121697192489634
  0.8331510207971249  0.1666470607194555  0.6884805056360577
  0.6465901862663443  0.1664798372229299  0.0556507677469540
  0.9964602473201296  0.3355096607885244  0.9367623134708722
  0.8351913091276373  0.9960279580174998  0.3166997816399402
  0.8519945265287205  0.1667644770978995  0.1976296092630321
  0.6626622996310658  0.5000840504567421  0.5663110083583121
  0.9995436228187984  0.6642979040831207  0.4402215387910360
  0.8335864876545855  0.3382309041607172  0.8118834544158915
  0.8357308957579903  0.5006038052325081  0.6867253292595166
  0.6654834301853043  0.5003834727165639  0.0634033475956812
  0.0032638712171362  0.6661026741541889  0.9381810507237844
  0.8352901869847997  0.3372283846950594  0.3170123944147036
  0.8333484948485150  0.5004240680536611  0.1898996048437240
  0.6657417990381020  0.8320320966682289  0.5644941736437303
  0.9978656866745013  0.9985164259746568  0.4406535035129906
  0.8334189505631429  0.6690742826616827  0.8130695749090222
  0.8335982213031770  0.8324231891563230  0.6885125846284552
  0.6654841076546276  0.8327425570549281  0.0634416878731940
  0.9977485716344745  0.9965118791986214  0.9366109704035992
  0.8279137861611687  0.6666052422139188  0.3160596902617314
  0.8334464481962485  0.8324608622313221  0.1899130624705521
  0.3330741077080219  0.1669387640415820  0.6676533682879509
  0.1657725532356125  0.1660901426698231  0.5860677096410924
  0.9988652371522662  0.1663686712866692  0.4609266567282475
  0.3338042134578245  0.3282118580249005  0.5411625778146245
  0.1650104377213921  0.3330709374257310  0.4176182984927479
  0.0006421150124041  0.9993778738065515  0.8355272104637592
  0.1666375877272728  0.0001826835247982  0.7108851626583004
  0.1670439078259136  0.1662131088207772  0.7926924493354832
  0.3221096595001356  0.1669941013863365  0.1725469529759991
  0.1767509955213029  0.1661877883135645  0.0803042719398519
  0.0060629938442389  0.1664170683826427  0.9574709372005543
  0.3381629033779419  0.3329784398430533  0.0425660616660863
  0.1682598989503319  0.3344563243112404  0.9178806358590563
  0.9976129260978723  0.9976195953264693  0.3368448808784095
  0.1605850779833773  0.0005700272703422  0.2102009402140297
  0.1604172617231185  0.1663530269783990  0.2926684210673471
  0.3330600162982478  0.5013326245095655  0.6723069159877824
  0.1615880392583762  0.4984343356926715  0.5872048737203102
  0.9993774534368782  0.5000735470977631  0.4608991477547804
  0.3343766726816568  0.6725110113845858  0.5410349637709047
  0.1650667331293079  0.6670523889303368  0.4169416691165466
  0.0005438343596822  0.3342864388523807  0.8355721547152442
  0.1665236310128648  0.3329172242604415  0.7112418455096758
  0.1665250395299367  0.5002164350075375  0.7936143734713639
  0.3330984419902094  0.4982430899098560  0.1674357347109634
  0.1660567092145513  0.4973605695173546  0.0855835239050933
  0.0005804435797998  0.4996114970842456  0.9610931914430338
  0.3328418299566920  0.6664290096184189  0.0429125795787257
  0.1663089261103892  0.6665437458424819  0.9177258184078525
  0.9978510223357944  0.3359133044634319  0.3369336197425667
  0.1609563501881865  0.3343160237464531  0.2111722197861141
  0.1657894982783930  0.5012990980282481  0.2925047026473564
  0.3329979340806517  0.8331584310928193  0.6676208642574935
  0.1657675264763228  0.8338679428033089  0.5860207345931769
  0.9988631637924996  0.8332557778166816  0.4610600390831721
  0.3332037903798195  0.0002374428551875  0.5411231520721032
  0.1649298799861398  0.9990855685615898  0.4172998186788064
  0.0003180626843786  0.6675572820733038  0.8360115239501056
  0.1658036167334487  0.6674455744214356  0.7110631927484476
  0.1671738894221448  0.8332862662427445  0.7924842352667127
  0.3329844074316810  0.8356622708749342  0.1673278575214141
  0.1659722413561298  0.8348357420680159  0.0854579662047428
  0.0006776469320613  0.8334586875995313  0.9610823284944274
  0.3378868154259891  0.9990052403151424  0.0416178966847127
  0.1682616845143414  0.9988833630227845  0.9177037783285442
  0.9990804234971904  0.6667110037420656  0.3358182651498467
  0.1659098777197272  0.6669743240134238  0.2098933074844709
  0.1651575776808940  0.8330237165538179  0.2919619868574230
  0.6666010870949748  0.1667327012003881  0.6676797876389102
  0.5003952837482757  0.1657339299950777  0.5860073273080175
  0.3319046967367996  0.1661709200974784  0.4590928392698572
  0.6667522231040124  0.3323716251492286  0.5426739141084198
  0.4987226215890246  0.3335473941850182  0.4174607768033525
  0.3337263944716256  0.9997187231875415  0.8352762183930764
  0.4997250900006378  0.0000476459739431  0.7103672844882709
  0.5000252430233445  0.1662872711954293  0.7923109233102394
  0.7486377915227038  0.1665226085490801  0.1268905534510978
  0.4995923803007400  0.1666968276615890  0.0945325333247951
  0.3383573883624109  0.1669961751251066  0.9603644037250447
  0.6599048950331081  0.3337470737775661  0.0394838478837443
  0.5009704652129088  0.3356163803094674  0.9164084441566587
  0.3308699020096313  0.9988121016646261  0.3340687717956285
  0.5029265639791447  0.0037630580566486  0.2108125297695267
  0.4933346292619945  0.1668325685193679  0.2955525287051657
  0.6667727627078506  0.5006528272590742  0.6688079018235982
  0.5038449935215255  0.4985613853273776  0.5869338432955189
  0.3312687714552709  0.5000026025969788  0.4562811084038074
  0.6662798200388877  0.6670329323041457  0.5426023924463621
  0.4993147847514194  0.6663770390802384  0.4168216486349365
  0.3337266163251300  0.3346170252352820  0.8354072167800481
  0.5000900681087899  0.3331660851748168  0.7106144212492467
  0.5009015076804815  0.5003326425970513  0.7932992000348591
  0.6667508795285144  0.4978568532521308  0.1673550999397975
  0.5001439836782922  0.5014364486750935  0.0860731114794433
  0.3334664188011160  0.5003851994308732  0.9608094576527861
  0.6665752499072610  0.6665239595145209  0.0423327507123545
  0.4999516137429296  0.6665820336652644  0.9174519532098202
  0.3307873480571502  0.3338156025437087  0.3341698021931734
  0.5031843494112351  0.3300974049253398  0.2107700105128103
  0.4984842245243257  0.4998206350175778  0.2918283047970007
  0.6665792644399815  0.8331942662223639  0.6676263312486981
  0.5004594126633961  0.8342807917068527  0.5860046303193727
  0.3319640860803403  0.8349546179721870  0.4590912955352309
  0.6665732129563082  0.9997791601422676  0.5425862361392149
  0.4989714270429673  0.9989622644311140  0.4172627840612009
  0.3333970244419646  0.6669360685653416  0.8359899395634400
  0.5003274413089613  0.6672574575052792  0.7108396058107118
  0.4998451092457472  0.8331804515937975  0.7922261838451590
  0.6667720273095483  0.8353229482694857  0.1673260543096831
  0.5001377795433797  0.8316907551234678  0.0860185743091080
  0.3332712829791262  0.8320580546410170  0.9603537653752028
  0.6600325616085456  0.9991354972894229  0.0394362388479976
  0.5006201658435216  0.9975785779703941  0.9163903316397821
  0.3326851397986559  0.6673284344439097  0.3343532218746930
  0.5002312739359525  0.6668559619447691  0.2099453044113204
  0.4989356840242181  0.8337564914943982  0.2917639424977452
  0.9997636090260826  0.1667713761519778  0.6676845796705422
  0.8330450353892687  0.1660166978272457  0.5860473735543081
  0.6647302788601905  0.1662983578976878  0.4609701175552416
  0.9989107972784197  0.3323982147005751  0.5427700564760443
  0.8316495656636960  0.3337338274349975  0.4189955617816281
  0.6673130553765247  0.9995792711253699  0.8343215927382133
  0.8333160387760046  0.0000422553671200  0.7104999226563820
  0.8343398532167399  0.1661777031875360  0.7923605021540396
  0.9988628576418108  0.1664237006761624  0.1582329141268204
  0.6662840269108798  0.1664574943177328  0.9573650719989146
  0.9962909516557872  0.3296623601045710  0.0420698534769670
  0.8340514515340516  0.3337006248626508  0.9172708018002780
  0.6652285542895129  0.9997099132772291  0.3359737189343548
  0.8391564255254380  0.9993536308701607  0.2136089355098107
  0.8328043040043056  0.1667533363927447  0.2957675151876984
  0.9984785523534967  0.5005368161905537  0.6690223732106872
  0.8329775773555355  0.4996351709420424  0.5869694444893199
  0.6648066812011066  0.4998966896547756  0.4608072136417292
  0.9995601044597109  0.6671033254326346  0.5425153241166853
  0.8321834270473829  0.6662497157971501  0.4176748145854674
  0.6675256337375473  0.3341559187859886  0.8342985695585696
  0.8333091458587134  0.3331734076520121  0.7108540881893504
  0.8341357612874205  0.5002967033978436  0.7934844804363053
  0.9989031861749211  0.5015948333376059  0.1668753635185993
  0.8323956724114652  0.4977439772705452  0.0855847380629555
  0.6684305815244826  0.5009624007485414  0.9598657633165644
  0.9987494403693731  0.6664716295606041  0.0428105185566210
  0.8339439397301334  0.6667044400717259  0.9173310636849550
  0.6651378142975375  0.3340408766505121  0.3361828518871732
  0.8391815750998930  0.3340143051537865  0.2135593024804479
  0.8307179129895630  0.5011745586540783  0.2930955981887990
  0.9996252606534100  0.8334074306687995  0.6676220820761571
  0.8330570169219484  0.8331288913142316  0.5859567727717092
  0.6650128210167381  0.8330011935763295  0.4609934921246079
  0.9994379737035146  0.9997754474078491  0.5427821496185459
  0.8315268542574117  0.9989103167804956  0.4189753405464458
  0.6670297294382053  0.6675560464388042  0.8356505164399977
  0.8331763590261261  0.6671526417776477  0.7108945396755786
  0.8340552300163466  0.8332078583309723  0.7923049815501244
  0.9988571964327733  0.8317553845623280  0.1668334283841304
  0.8323973709778656  0.8353291183872216  0.0855731990374053
  0.6683935023531404  0.8320563673849009  0.9598417403691144
  0.9961856078205358  0.0031103082073543  0.0420385044240632
  0.8339759655889480  0.9995547765131079  0.9170940436396151
  0.6657384894142169  0.6666814536721049  0.3359882207792211
  0.8324015597053602  0.6666712435859878  0.2105936551950620
  0.8306847910337751  0.8321343243781953  0.2930973186625678
  0.3322643473807858  0.5009335770172498  0.5636325423071256
 
  0.00000000E+00  0.00000000E+00  0.00000000E+00
  0.00000000E+00  0.00000000E+00  0.00000000E+00
  0.00000000E+00  0.00000000E+00  0.00000000E+00
  0.00000000E+00  0.00000000E+00  0.00000000E+00
  0.00000000E+00  0.00000000E+00  0.00000000E+00
  0.00000000E+00  0.00000000E+00  0.00000000E+00
  0.00000000E+00  0.00000000E+00  0.00000000E+00
  0.00000000E+00  0.00000000E+00  0.00000000E+00
  0.00000000E+00  0.00000000E+00  0.00000000E+00
  0.00000000E+00  0.00000000E+00  0.00000000E+00
  0.00000000E+00  0.00000000E+00  0.00000000E+00
  0.00000000E+00  0.00000000E+00  0.00000000E+00
  0.00000000E+00  0.00000000E+00  0.00000000E+00
  0.00000000E+00  0.00000000E+00  0.00000000E+00
  0.00000000E+00  0.00000000E+00  0.00000000E+00
  0.00000000E+00  0.00000000E+00  0.00000000E+00
  0.00000000E+00  0.00000000E+00  0.00000000E+00
  0.00000000E+00  0.00000000E+00  0.00000000E+00
  0.00000000E+00  0.00000000E+00  0.00000000E+00
  0.00000000E+00  0.00000000E+00  0.00000000E+00
  0.00000000E+00  0.00000000E+00  0.00000000E+00
  0.00000000E+00  0.00000000E+00  0.00000000E+00
  0.00000000E+00  0.00000000E+00  0.00000000E+00
  0.00000000E+00  0.00000000E+00  0.00000000E+00
  0.00000000E+00  0.00000000E+00  0.00000000E+00
  0.00000000E+00  0.00000000E+00  0.00000000E+00
  0.00000000E+00  0.00000000E+00  0.00000000E+00
  0.00000000E+00  0.00000000E+00  0.00000000E+00
  0.00000000E+00  0.00000000E+00  0.00000000E+00
  0.00000000E+00  0.00000000E+00  0.00000000E+00
  0.00000000E+00  0.00000000E+00  0.00000000E+00
  0.00000000E+00  0.00000000E+00  0.00000000E+00
  0.00000000E+00  0.00000000E+00  0.00000000E+00
  0.00000000E+00  0.00000000E+00  0.00000000E+00
  0.00000000E+00  0.00000000E+00  0.00000000E+00
  0.00000000E+00  0.00000000E+00  0.00000000E+00
  0.00000000E+00  0.00000000E+00  0.00000000E+00
  0.00000000E+00  0.00000000E+00  0.00000000E+00
  0.00000000E+00  0.00000000E+00  0.00000000E+00
  0.00000000E+00  0.00000000E+00  0.00000000E+00
  0.00000000E+00  0.00000000E+00  0.00000000E+00
  0.00000000E+00  0.00000000E+00  0.00000000E+00
  0.00000000E+00  0.00000000E+00  0.00000000E+00
  0.00000000E+00  0.00000000E+00  0.00000000E+00
  0.00000000E+00  0.00000000E+00  0.00000000E+00
  0.00000000E+00  0.00000000E+00  0.00000000E+00
  0.00000000E+00  0.00000000E+00  0.00000000E+00
  0.00000000E+00  0.00000000E+00  0.00000000E+00
  0.00000000E+00  0.00000000E+00  0.00000000E+00
  0.00000000E+00  0.00000000E+00  0.00000000E+00
  0.00000000E+00  0.00000000E+00  0.00000000E+00
  0.00000000E+00  0.00000000E+00  0.00000000E+00
  0.00000000E+00  0.00000000E+00  0.00000000E+00
  0.00000000E+00  0.00000000E+00  0.00000000E+00
  0.00000000E+00  0.00000000E+00  0.00000000E+00
  0.00000000E+00  0.00000000E+00  0.00000000E+00
  0.00000000E+00  0.00000000E+00  0.00000000E+00
  0.00000000E+00  0.00000000E+00  0.00000000E+00
  0.00000000E+00  0.00000000E+00  0.00000000E+00
  0.00000000E+00  0.00000000E+00  0.00000000E+00
  0.00000000E+00  0.00000000E+00  0.00000000E+00
  0.00000000E+00  0.00000000E+00  0.00000000E+00
  0.00000000E+00  0.00000000E+00  0.00000000E+00
  0.00000000E+00  0.00000000E+00  0.00000000E+00
  0.00000000E+00  0.00000000E+00  0.00000000E+00
  0.00000000E+00  0.00000000E+00  0.00000000E+00
  0.00000000E+00  0.00000000E+00  0.00000000E+00
  0.00000000E+00  0.00000000E+00  0.00000000E+00
  0.00000000E+00  0.00000000E+00  0.00000000E+00
  0.00000000E+00  0.00000000E+00  0.00000000E+00
  0.00000000E+00  0.00000000E+00  0.00000000E+00
  0.00000000E+00  0.00000000E+00  0.00000000E+00
  0.00000000E+00  0.00000000E+00  0.00000000E+00
  0.00000000E+00  0.00000000E+00  0.00000000E+00
  0.00000000E+00  0.00000000E+00  0.00000000E+00
  0.00000000E+00  0.00000000E+00  0.00000000E+00
  0.00000000E+00  0.00000000E+00  0.00000000E+00
  0.00000000E+00  0.00000000E+00  0.00000000E+00
  0.00000000E+00  0.00000000E+00  0.00000000E+00
  0.00000000E+00  0.00000000E+00  0.00000000E+00
  0.00000000E+00  0.00000000E+00  0.00000000E+00
  0.00000000E+00  0.00000000E+00  0.00000000E+00
  0.00000000E+00  0.00000000E+00  0.00000000E+00
  0.00000000E+00  0.00000000E+00  0.00000000E+00
  0.00000000E+00  0.00000000E+00  0.00000000E+00
  0.00000000E+00  0.00000000E+00  0.00000000E+00
  0.00000000E+00  0.00000000E+00  0.00000000E+00
  0.00000000E+00  0.00000000E+00  0.00000000E+00
  0.00000000E+00  0.00000000E+00  0.00000000E+00
  0.00000000E+00  0.00000000E+00  0.00000000E+00
  0.00000000E+00  0.00000000E+00  0.00000000E+00
  0.00000000E+00  0.00000000E+00  0.00000000E+00
  0.00000000E+00  0.00000000E+00  0.00000000E+00
  0.00000000E+00  0.00000000E+00  0.00000000E+00
  0.00000000E+00  0.00000000E+00  0.00000000E+00
  0.00000000E+00  0.00000000E+00  0.00000000E+00
  0.00000000E+00  0.00000000E+00  0.00000000E+00
  0.00000000E+00  0.00000000E+00  0.00000000E+00
  0.00000000E+00  0.00000000E+00  0.00000000E+00
  0.00000000E+00  0.00000000E+00  0.00000000E+00
  0.00000000E+00  0.00000000E+00  0.00000000E+00
  0.00000000E+00  0.00000000E+00  0.00000000E+00
  0.00000000E+00  0.00000000E+00  0.00000000E+00
  0.00000000E+00  0.00000000E+00  0.00000000E+00
  0.00000000E+00  0.00000000E+00  0.00000000E+00
  0.00000000E+00  0.00000000E+00  0.00000000E+00
  0.00000000E+00  0.00000000E+00  0.00000000E+00
  0.00000000E+00  0.00000000E+00  0.00000000E+00
  0.00000000E+00  0.00000000E+00  0.00000000E+00
  0.00000000E+00  0.00000000E+00  0.00000000E+00
  0.00000000E+00  0.00000000E+00  0.00000000E+00
  0.00000000E+00  0.00000000E+00  0.00000000E+00
  0.00000000E+00  0.00000000E+00  0.00000000E+00
  0.00000000E+00  0.00000000E+00  0.00000000E+00
  0.00000000E+00  0.00000000E+00  0.00000000E+00
  0.00000000E+00  0.00000000E+00  0.00000000E+00
  0.00000000E+00  0.00000000E+00  0.00000000E+00
  0.00000000E+00  0.00000000E+00  0.00000000E+00
  0.00000000E+00  0.00000000E+00  0.00000000E+00
  0.00000000E+00  0.00000000E+00  0.00000000E+00
  0.00000000E+00  0.00000000E+00  0.00000000E+00
  0.00000000E+00  0.00000000E+00  0.00000000E+00
  0.00000000E+00  0.00000000E+00  0.00000000E+00
  0.00000000E+00  0.00000000E+00  0.00000000E+00
  0.00000000E+00  0.00000000E+00  0.00000000E+00
  0.00000000E+00  0.00000000E+00  0.00000000E+00
  0.00000000E+00  0.00000000E+00  0.00000000E+00
  0.00000000E+00  0.00000000E+00  0.00000000E+00
  0.00000000E+00  0.00000000E+00  0.00000000E+00
  0.00000000E+00  0.00000000E+00  0.00000000E+00
  0.00000000E+00  0.00000000E+00  0.00000000E+00
  0.00000000E+00  0.00000000E+00  0.00000000E+00
  0.00000000E+00  0.00000000E+00  0.00000000E+00
  0.00000000E+00  0.00000000E+00  0.00000000E+00
  0.00000000E+00  0.00000000E+00  0.00000000E+00
  0.00000000E+00  0.00000000E+00  0.00000000E+00
  0.00000000E+00  0.00000000E+00  0.00000000E+00
  0.00000000E+00  0.00000000E+00  0.00000000E+00
  0.00000000E+00  0.00000000E+00  0.00000000E+00
  0.00000000E+00  0.00000000E+00  0.00000000E+00
  0.00000000E+00  0.00000000E+00  0.00000000E+00
  0.00000000E+00  0.00000000E+00  0.00000000E+00
  0.00000000E+00  0.00000000E+00  0.00000000E+00
  0.00000000E+00  0.00000000E+00  0.00000000E+00
  0.00000000E+00  0.00000000E+00  0.00000000E+00
  0.00000000E+00  0.00000000E+00  0.00000000E+00
  0.00000000E+00  0.00000000E+00  0.00000000E+00
  0.00000000E+00  0.00000000E+00  0.00000000E+00
  0.00000000E+00  0.00000000E+00  0.00000000E+00
  0.00000000E+00  0.00000000E+00  0.00000000E+00
  0.00000000E+00  0.00000000E+00  0.00000000E+00
  0.00000000E+00  0.00000000E+00  0.00000000E+00
  0.00000000E+00  0.00000000E+00  0.00000000E+00
  0.00000000E+00  0.00000000E+00  0.00000000E+00
  0.00000000E+00  0.00000000E+00  0.00000000E+00
  0.00000000E+00  0.00000000E+00  0.00000000E+00
  0.00000000E+00  0.00000000E+00  0.00000000E+00
  0.00000000E+00  0.00000000E+00  0.00000000E+00
  0.00000000E+00  0.00000000E+00  0.00000000E+00
  0.00000000E+00  0.00000000E+00  0.00000000E+00
  0.00000000E+00  0.00000000E+00  0.00000000E+00
  0.00000000E+00  0.00000000E+00  0.00000000E+00
  0.00000000E+00  0.00000000E+00  0.00000000E+00
  0.00000000E+00  0.00000000E+00  0.00000000E+00
  0.00000000E+00  0.00000000E+00  0.00000000E+00
  0.00000000E+00  0.00000000E+00  0.00000000E+00
  0.00000000E+00  0.00000000E+00  0.00000000E+00
  0.00000000E+00  0.00000000E+00  0.00000000E+00
  0.00000000E+00  0.00000000E+00  0.00000000E+00
  0.00000000E+00  0.00000000E+00  0.00000000E+00
  0.00000000E+00  0.00000000E+00  0.00000000E+00
  0.00000000E+00  0.00000000E+00  0.00000000E+00
  0.00000000E+00  0.00000000E+00  0.00000000E+00
  0.00000000E+00  0.00000000E+00  0.00000000E+00
  0.00000000E+00  0.00000000E+00  0.00000000E+00
  0.00000000E+00  0.00000000E+00  0.00000000E+00
  0.00000000E+00  0.00000000E+00  0.00000000E+00
  0.00000000E+00  0.00000000E+00  0.00000000E+00
  0.00000000E+00  0.00000000E+00  0.00000000E+00
  0.00000000E+00  0.00000000E+00  0.00000000E+00
  0.00000000E+00  0.00000000E+00  0.00000000E+00
  0.00000000E+00  0.00000000E+00  0.00000000E+00
  0.00000000E+00  0.00000000E+00  0.00000000E+00
  0.00000000E+00  0.00000000E+00  0.00000000E+00
  0.00000000E+00  0.00000000E+00  0.00000000E+00
  0.00000000E+00  0.00000000E+00  0.00000000E+00
  0.00000000E+00  0.00000000E+00  0.00000000E+00
  0.00000000E+00  0.00000000E+00  0.00000000E+00
  0.00000000E+00  0.00000000E+00  0.00000000E+00
  0.00000000E+00  0.00000000E+00  0.00000000E+00
  0.00000000E+00  0.00000000E+00  0.00000000E+00
  0.00000000E+00  0.00000000E+00  0.00000000E+00
  0.00000000E+00  0.00000000E+00  0.00000000E+00
  0.00000000E+00  0.00000000E+00  0.00000000E+00
  0.00000000E+00  0.00000000E+00  0.00000000E+00
  0.00000000E+00  0.00000000E+00  0.00000000E+00
  0.00000000E+00  0.00000000E+00  0.00000000E+00
  0.00000000E+00  0.00000000E+00  0.00000000E+00
  0.00000000E+00  0.00000000E+00  0.00000000E+00
  0.00000000E+00  0.00000000E+00  0.00000000E+00
  0.00000000E+00  0.00000000E+00  0.00000000E+00
  0.00000000E+00  0.00000000E+00  0.00000000E+00
  0.00000000E+00  0.00000000E+00  0.00000000E+00
  0.00000000E+00  0.00000000E+00  0.00000000E+00
  0.00000000E+00  0.00000000E+00  0.00000000E+00
  0.00000000E+00  0.00000000E+00  0.00000000E+00
  0.00000000E+00  0.00000000E+00  0.00000000E+00
  0.00000000E+00  0.00000000E+00  0.00000000E+00
  0.00000000E+00  0.00000000E+00  0.00000000E+00
  0.00000000E+00  0.00000000E+00  0.00000000E+00
  0.00000000E+00  0.00000000E+00  0.00000000E+00
  0.00000000E+00  0.00000000E+00  0.00000000E+00
  0.00000000E+00  0.00000000E+00  0.00000000E+00
  0.00000000E+00  0.00000000E+00  0.00000000E+00
  0.00000000E+00  0.00000000E+00  0.00000000E+00
