Ti4 O8                                  
   1.00000000000000     
    11.5607959665632993    0.0000000000000000    0.0000000000000000
     0.0000000000000000   11.5607959665632993    0.0000000000000000
     0.0000000000000000    0.0000000000000000   19.2862138499999993
   Ti   O    Co
    71   143     1
Direct
  0.0009667582869923  0.1662861472713502  0.5643493828090342
  0.3332874122095433  0.3322588609492598  0.4398622415986821
  0.1669053750888452  0.0007782075438811  0.8139021758004716
  0.1671916506793210  0.1679948583260256  0.6898206064700929
  0.0006540362535787  0.1665624983052112  0.0632155083023775
  0.3331022040099398  0.3332219010389608  0.9387096264180030
  0.1675629353474548  0.9993279785681182  0.3132449586669921
  0.1667786574449153  0.1652002337218050  0.1882646512978994
  0.0027021006366610  0.4979177846739091  0.5649293565809614
  0.3324964656996556  0.6558846731456924  0.4414570203257711
  0.1670555175465509  0.3355635706108018  0.8138131794907437
  0.1652220110845519  0.5012305742707639  0.6879133755048272
  0.0005448868998243  0.5002072187097113  0.0632865111345922
  0.3334569769559010  0.6666058923370102  0.9384379716107176
  0.1669980253600656  0.3325741268510356  0.3127220991468533
  0.1667994793573087  0.4989698214819001  0.1883685743498233
  0.0002975912851610  0.8334941432681191  0.5626773480886484
  0.3334195649004172  0.9969488249063332  0.4404526803354258
  0.1670680904891952  0.6661842256584976  0.8138545226242755
  0.1675850011793614  0.8339317944659328  0.6895140414633190
  0.0002534515594164  0.8331788742353510  0.0635126028565196
  0.3333456708391722  0.9995894372495684  0.9388989918278341
  0.1673103724213263  0.6666044235594981  0.3133217235445258
  0.1667238432082030  0.8321934731077221  0.1882116894784431
  0.3334314933678186  0.1693967034264148  0.5625807284469602
  0.6667152329294055  0.3526532635087065  0.4303729835009946
  0.4999788085090344  0.0014083724898555  0.8143801522815295
  0.4948716017734753  0.1676085572148978  0.6909766983441301
  0.3328097788718125  0.1667059461470188  0.0631671915367562
  0.6663226673018130  0.3332098635807839  0.9390017327035594
  0.4956049577538550  0.0005617082946614  0.3118613750335655
  0.5001677430650417  0.1655454019343665  0.1872842635278644
  0.6662219092344515  0.6590157301931114  0.4318716800978848
  0.5007177383820718  0.3364226512444048  0.8143752619763660
  0.4912076746884608  0.4992336542282416  0.6871603570485760
  0.3329894104277713  0.5001812401778594  0.0632004333356022
  0.6665208240142491  0.6665944729619824  0.9385047015068153
  0.4941515893557096  0.3327882165228004  0.3116340960997803
  0.5000225347232714  0.4984816910209418  0.1875236420576485
  0.3318280236205666  0.8302575927871771  0.5611409172030335
  0.6667331046236669  0.9704247039309877  0.4302917978805212
  0.5006137776671409  0.6656294935920144  0.8135640935411814
  0.4933046669631054  0.8334923797475682  0.6906218618586095
  0.3332172191880858  0.8330595477278919  0.0634494726822865
  0.6663912001797598  0.9995272706372944  0.9388827064356491
  0.4929196657292465  0.6660788181187911  0.3124010488815401
  0.5001276335635225  0.8314879021439694  0.1880624770612869
  0.6664893268226066  0.1463583039140985  0.5720900896569034
  0.0009064823594827  0.3323871546486359  0.4382900617252972
  0.8335163837465132  0.0012364734338846  0.8151616822620440
  0.8367561038022515  0.1669093285099592  0.6912115437104376
  0.6666027074491367  0.1665425467339219  0.0631002012780044
  0.0009128619816181  0.3332126678073095  0.9389952705255880
  0.8360517884081560  0.0002629753303935  0.3116609689220340
  0.8334576211756826  0.1656331499417263  0.1871561434987257
  0.6683733100429237  0.5289213744543844  0.5742395936114377
  0.0011183762670868  0.6634009201692805  0.4398184486855072
  0.8338305459591950  0.3347459094025993  0.8154236606725078
  0.8342912612546414  0.4989854093096397  0.6910299343687853
  0.6665456068219768  0.5002935636929493  0.0631951437322371
  0.0005083297969080  0.6666460928199811  0.9387028241804742
  0.8369951205027206  0.3326549095107865  0.3115171365357199
  0.8334687886329775  0.4986351426124145  0.1873045162151001
  0.6650573627618073  0.8379519783722884  0.5711840941921338
  0.0006999302629396  0.0000236900448911  0.4385733701541383
  0.8338927852646094  0.6681301707424296  0.8144818933142588
  0.8398724120540351  0.8336635997103414  0.6904748502751659
  0.6665945097794150  0.8331635003814810  0.0634282354868176
  0.0007775689928664  0.9996066464664466  0.9389225167455066
  0.8389909144235830  0.6656910439708241  0.3122921179183606
  0.8332928893426015  0.8314399828176064  0.1879068475252978
  0.3321090202647383  0.1697961141631410  0.6683388414566878
  0.1660784822119723  0.1664279932405961  0.5858019870982716
  0.9977116959070784  0.1659735980121013  0.4599829967355973
  0.3379736152839499  0.3281619186973117  0.5404298022631480
  0.1658286557073083  0.3309088083879814  0.4160374705937357
  0.0005015031833295  0.0004918143225154  0.8360581140339605
  0.1666077525151266  0.0007320612215054  0.7107790253454951
  0.1670842597074298  0.1671857001571908  0.7925570985753154
  0.3331564376563847  0.1652358344385760  0.1665530923930518
  0.1666999170227470  0.1663556708734646  0.0847978644710494
  0.0004411902128041  0.1664431506867601  0.9604432985844369
  0.3332816098822207  0.3331483670329973  0.0420658852991167
  0.1668523427743196  0.3332361789627001  0.9177428955313331
  0.9993684175321462  0.9983924893067240  0.3351543990969148
  0.1667000489037633  0.9986238808651606  0.2098611669096471
  0.1659612126363825  0.1647180802704042  0.2911476955828860
  0.3317263320952080  0.5015205657251300  0.6712643965004830
  0.1594083076380173  0.4977300257687389  0.5869981690055681
  0.0016067257378083  0.4986337319599699  0.4603391289337679
  0.3390013050654659  0.6697217000598386  0.5408836104204937
  0.1654083087551825  0.6667916173345390  0.4166903467706646
  0.0002468903344450  0.3337809916980987  0.8361566556950066
  0.1650989072965245  0.3343627835389285  0.7114247721492930
  0.1655437068935512  0.5009586254179723  0.7934309257487016
  0.3331061250908505  0.4991783713538425  0.1665105480513205
  0.1667127102951298  0.5000164099177127  0.0849185155724967
  0.0004392424553714  0.5000273781594942  0.9603294907912812
  0.3333969308285347  0.6665649039740060  0.0420018041361274
  0.1669285675092240  0.6667505226741284  0.9174703275704843
  0.0007264441181150  0.3307227932208789  0.3338377098639924
  0.1665474805583287  0.3321552952008275  0.2096047386660231
  0.1663912493746054  0.4989149302500380  0.2914862981241413
  0.3323735067401827  0.8336356299794332  0.6674604195430405
  0.1660155550255382  0.8319257940027853  0.5851633935237714
  0.9975669281718993  0.8331617071990038  0.4602999479315173
  0.3323644953828762  0.9999555475857562  0.5404597006482206
  0.1659745719398913  0.9998760504690054  0.4165264646353037
  0.0002819024949332  0.6682620597359019  0.8360272571712031
  0.1653668079048884  0.6676304051625692  0.7110070114851936
  0.1671951983590816  0.8342077560567560  0.7921258375192792
  0.3332703231190024  0.8320326909929605  0.1667500749813229
  0.1667137710496860  0.8330668611738119  0.0851073811884362
  0.0003579919605983  0.8332412601800527  0.9605014846543298
  0.3332615612011480  0.9996630138142635  0.0421078579063305
  0.1668931179027453  0.9997340417802221  0.9175504435358306
  0.0003234081341787  0.6656562209827044  0.3345562604612127
  0.1666362325247164  0.6657804946186232  0.2101134116397390
  0.1660994334431720  0.8324800762208895  0.2916328247351601
  0.6669761989387410  0.1664864590809145  0.6706299710697081
  0.5000400476635960  0.1592190224535273  0.5887713929800498
  0.3346883288940390  0.1658945933445963  0.4589723091984368
  0.4994528493601038  0.3384610169068836  0.4134013081926184
  0.3333083234507583  0.0004194636538770  0.8359313177077894
  0.4974003964972340  0.0008828218204826  0.7117933347903502
  0.4992710158449967  0.1675207119310897  0.7936607258537123
  0.6667102336487289  0.1648949655054395  0.1665592992673552
  0.5000144274231388  0.1662072662686072  0.0847934351416697
  0.3334127789413515  0.1665142593971041  0.9603520089702613
  0.6665227459737082  0.3331395563120694  0.0421645144998664
  0.5000787092846721  0.3336535564739265  0.9176327564023339
  0.3333105983824964  0.9984204950426729  0.3341852920095931
  0.4991586031494961  0.9986068666408769  0.2096039833865575
  0.5000154241717141  0.1652745373975080  0.2910659729905944
  0.6699303034661384  0.5128642235763294  0.6730246949467897
  0.5125890266534583  0.4905676063846656  0.5881032220305258
  0.3290003446931209  0.4981582703634331  0.4553692190639325
  0.6668043059182693  0.6778932958576434  0.5461951927323483
  0.5002907996097150  0.6597346217950957  0.4160316390267056
  0.3332263557278736  0.3346600144626493  0.8358103363272633
  0.5001237607062592  0.3341168795936014  0.7112841952063960
  0.5005155210283050  0.5008265531977116  0.7933371392803110
  0.6666788927802898  0.4990928800265948  0.1665698031490166
  0.4999612037237426  0.5000320712653945  0.0846523535594557
  0.3333221107751569  0.4999942040995933  0.9602996081953137
  0.6665333292182964  0.6665826921340283  0.0420155012035366
  0.5001966702165390  0.6664612893262429  0.9170815489886621
  0.3320771160543359  0.3297958787917850  0.3328741694526087
  0.4994604210359981  0.3318807780913531  0.2083440193189148
  0.4973465612741776  0.4986064947382687  0.2904063890951392
  0.6667444388208423  0.8375756210760414  0.6677058075875877
  0.5004723579727468  0.8392745059995974  0.5860584488017935
  0.3345188568423652  0.8343297002503576  0.4590403086394943
  0.6669191125930283  0.9993462024570192  0.5328587897089676
  0.5032425218719396  0.0022210371683258  0.4159049294826147
  0.3333052288014855  0.6671914304077120  0.8356061723659707
  0.4974793372119137  0.6683806618652213  0.7104489541442902
  0.4996566106461486  0.8339939176381819  0.7925201846424912
  0.6666958412637811  0.8322572250826994  0.1669035053216490
  0.5000874124348442  0.8329773337202866  0.0851957230280789
  0.3335458366103126  0.8331116707948141  0.9603967676455838
  0.6666043653308620  0.9996402859392788  0.0421420234862708
  0.5000255658124289  0.9996852141246890  0.9177906406929139
  0.3324429407135625  0.6659634447075646  0.3339367653568317
  0.4995876284239458  0.6655507228708828  0.2094955727285139
  0.4991257021723783  0.8311569177838010  0.2916911247644620
  0.0008603269526688  0.1689120173841729  0.6681070555020554
  0.8338874725784109  0.1597865274902688  0.5887298327275730
  0.6668123934654702  0.2476539972127014  0.5003240937038456
  0.9974703720965508  0.3309237142284189  0.5414110769189975
  0.8341129026786831  0.3382979445603240  0.4136753523132199
  0.6666456071008895  0.0007188375427134  0.8359209684286526
  0.8356822193583184  0.0009622542565069  0.7120673457072471
  0.8343074307680780  0.1673578570470937  0.7941283117364080
  0.0001368052454112  0.1651509965499400  0.1665368833134622
  0.8333483911401061  0.1662936673760669  0.0847796316538378
  0.6665539750006886  0.1664660055655460  0.9604013347869369
  0.0002599311835425  0.3331636143911965  0.0421899629709870
  0.8334461105170305  0.3333358287342278  0.9179963925427330
  0.6668113171239582  0.9931506352840884  0.3318866293250622
  0.8341203344383530  0.9986180210387516  0.2096179920228707
  0.8335700165569619  0.1653118020642950  0.2910855375358210
  0.9979117844484691  0.5020375340340379  0.6686507717277266
  0.8298371163313760  0.4923628047816564  0.5876150866033285
  0.6681154999600452  0.4992003973825803  0.4692792840170412
  0.9964121292089558  0.6662783027774495  0.5417071166036820
  0.8336815900183225  0.6607635775504832  0.4160659046513970
  0.6668436597737397  0.3340180025400485  0.8360670131257137
  0.8329975267279082  0.3337577806847847  0.7119886456667572
  0.8344255302275130  0.5009016696469075  0.7940418407813468
  0.0002232821719304  0.4992083702665369  0.1664955295918560
  0.8333913036272378  0.5000181766168197  0.0846419483136245
  0.6666852152384521  0.5000257246895359  0.9603102040805993
  0.0001780414452526  0.6665930970335836  0.0421616534846621
  0.8334195058771954  0.6669207301624240  0.9176027408201222
  0.6669756938153597  0.3335864868152001  0.3319344184912083
  0.8339263715281930  0.3319021094873804  0.2084064733708644
  0.8357696430653618  0.4986986526953814  0.2904028066592801
  0.0010283463274803  0.8345287945893105  0.6675852802672253
  0.8340869021829818  0.8386399350537843  0.5865856487531005
  0.6665515037336291  0.8222802586241116  0.4540771235165906
  0.0016484782813251  0.9998883373237248  0.5413586823840788
  0.8300792026861075  0.0023137415400214  0.4161378092372203
  0.6669483770894971  0.6678614271708980  0.8355323278765994
  0.8365454431228301  0.6696340083679431  0.7115983467792901
  0.8339297980628473  0.8346999244738669  0.7933631061965016
  0.0000449180682196  0.8321177913657394  0.1667362395029528
  0.8332577075137806  0.8329527914423736  0.0851561159713654
  0.6665626001143750  0.8331715247879359  0.9604266297874560
  0.0002196765795048  0.9996916436240042  0.0422256090010578
  0.8334906827539754  0.9997746267312806  0.9179082541508734
  0.6668484154302448  0.6604062183736801  0.3349614654688793
  0.8337285202750593  0.6655200312915852  0.2093838329985829
  0.8343096394051770  0.8310982104574407  0.2916260186044752
  0.3338448948257025  0.4974053017809581  0.5661390574944463
 
  0.00000000E+00  0.00000000E+00  0.00000000E+00
  0.00000000E+00  0.00000000E+00  0.00000000E+00
  0.00000000E+00  0.00000000E+00  0.00000000E+00
  0.00000000E+00  0.00000000E+00  0.00000000E+00
  0.00000000E+00  0.00000000E+00  0.00000000E+00
  0.00000000E+00  0.00000000E+00  0.00000000E+00
  0.00000000E+00  0.00000000E+00  0.00000000E+00
  0.00000000E+00  0.00000000E+00  0.00000000E+00
  0.00000000E+00  0.00000000E+00  0.00000000E+00
  0.00000000E+00  0.00000000E+00  0.00000000E+00
  0.00000000E+00  0.00000000E+00  0.00000000E+00
  0.00000000E+00  0.00000000E+00  0.00000000E+00
  0.00000000E+00  0.00000000E+00  0.00000000E+00
  0.00000000E+00  0.00000000E+00  0.00000000E+00
  0.00000000E+00  0.00000000E+00  0.00000000E+00
  0.00000000E+00  0.00000000E+00  0.00000000E+00
  0.00000000E+00  0.00000000E+00  0.00000000E+00
  0.00000000E+00  0.00000000E+00  0.00000000E+00
  0.00000000E+00  0.00000000E+00  0.00000000E+00
  0.00000000E+00  0.00000000E+00  0.00000000E+00
  0.00000000E+00  0.00000000E+00  0.00000000E+00
  0.00000000E+00  0.00000000E+00  0.00000000E+00
  0.00000000E+00  0.00000000E+00  0.00000000E+00
  0.00000000E+00  0.00000000E+00  0.00000000E+00
  0.00000000E+00  0.00000000E+00  0.00000000E+00
  0.00000000E+00  0.00000000E+00  0.00000000E+00
  0.00000000E+00  0.00000000E+00  0.00000000E+00
  0.00000000E+00  0.00000000E+00  0.00000000E+00
  0.00000000E+00  0.00000000E+00  0.00000000E+00
  0.00000000E+00  0.00000000E+00  0.00000000E+00
  0.00000000E+00  0.00000000E+00  0.00000000E+00
  0.00000000E+00  0.00000000E+00  0.00000000E+00
  0.00000000E+00  0.00000000E+00  0.00000000E+00
  0.00000000E+00  0.00000000E+00  0.00000000E+00
  0.00000000E+00  0.00000000E+00  0.00000000E+00
  0.00000000E+00  0.00000000E+00  0.00000000E+00
  0.00000000E+00  0.00000000E+00  0.00000000E+00
  0.00000000E+00  0.00000000E+00  0.00000000E+00
  0.00000000E+00  0.00000000E+00  0.00000000E+00
  0.00000000E+00  0.00000000E+00  0.00000000E+00
  0.00000000E+00  0.00000000E+00  0.00000000E+00
  0.00000000E+00  0.00000000E+00  0.00000000E+00
  0.00000000E+00  0.00000000E+00  0.00000000E+00
  0.00000000E+00  0.00000000E+00  0.00000000E+00
  0.00000000E+00  0.00000000E+00  0.00000000E+00
  0.00000000E+00  0.00000000E+00  0.00000000E+00
  0.00000000E+00  0.00000000E+00  0.00000000E+00
  0.00000000E+00  0.00000000E+00  0.00000000E+00
  0.00000000E+00  0.00000000E+00  0.00000000E+00
  0.00000000E+00  0.00000000E+00  0.00000000E+00
  0.00000000E+00  0.00000000E+00  0.00000000E+00
  0.00000000E+00  0.00000000E+00  0.00000000E+00
  0.00000000E+00  0.00000000E+00  0.00000000E+00
  0.00000000E+00  0.00000000E+00  0.00000000E+00
  0.00000000E+00  0.00000000E+00  0.00000000E+00
  0.00000000E+00  0.00000000E+00  0.00000000E+00
  0.00000000E+00  0.00000000E+00  0.00000000E+00
  0.00000000E+00  0.00000000E+00  0.00000000E+00
  0.00000000E+00  0.00000000E+00  0.00000000E+00
  0.00000000E+00  0.00000000E+00  0.00000000E+00
  0.00000000E+00  0.00000000E+00  0.00000000E+00
  0.00000000E+00  0.00000000E+00  0.00000000E+00
  0.00000000E+00  0.00000000E+00  0.00000000E+00
  0.00000000E+00  0.00000000E+00  0.00000000E+00
  0.00000000E+00  0.00000000E+00  0.00000000E+00
  0.00000000E+00  0.00000000E+00  0.00000000E+00
  0.00000000E+00  0.00000000E+00  0.00000000E+00
  0.00000000E+00  0.00000000E+00  0.00000000E+00
  0.00000000E+00  0.00000000E+00  0.00000000E+00
  0.00000000E+00  0.00000000E+00  0.00000000E+00
  0.00000000E+00  0.00000000E+00  0.00000000E+00
  0.00000000E+00  0.00000000E+00  0.00000000E+00
  0.00000000E+00  0.00000000E+00  0.00000000E+00
  0.00000000E+00  0.00000000E+00  0.00000000E+00
  0.00000000E+00  0.00000000E+00  0.00000000E+00
  0.00000000E+00  0.00000000E+00  0.00000000E+00
  0.00000000E+00  0.00000000E+00  0.00000000E+00
  0.00000000E+00  0.00000000E+00  0.00000000E+00
  0.00000000E+00  0.00000000E+00  0.00000000E+00
  0.00000000E+00  0.00000000E+00  0.00000000E+00
  0.00000000E+00  0.00000000E+00  0.00000000E+00
  0.00000000E+00  0.00000000E+00  0.00000000E+00
  0.00000000E+00  0.00000000E+00  0.00000000E+00
  0.00000000E+00  0.00000000E+00  0.00000000E+00
  0.00000000E+00  0.00000000E+00  0.00000000E+00
  0.00000000E+00  0.00000000E+00  0.00000000E+00
  0.00000000E+00  0.00000000E+00  0.00000000E+00
  0.00000000E+00  0.00000000E+00  0.00000000E+00
  0.00000000E+00  0.00000000E+00  0.00000000E+00
  0.00000000E+00  0.00000000E+00  0.00000000E+00
  0.00000000E+00  0.00000000E+00  0.00000000E+00
  0.00000000E+00  0.00000000E+00  0.00000000E+00
  0.00000000E+00  0.00000000E+00  0.00000000E+00
  0.00000000E+00  0.00000000E+00  0.00000000E+00
  0.00000000E+00  0.00000000E+00  0.00000000E+00
  0.00000000E+00  0.00000000E+00  0.00000000E+00
  0.00000000E+00  0.00000000E+00  0.00000000E+00
  0.00000000E+00  0.00000000E+00  0.00000000E+00
  0.00000000E+00  0.00000000E+00  0.00000000E+00
  0.00000000E+00  0.00000000E+00  0.00000000E+00
  0.00000000E+00  0.00000000E+00  0.00000000E+00
  0.00000000E+00  0.00000000E+00  0.00000000E+00
  0.00000000E+00  0.00000000E+00  0.00000000E+00
  0.00000000E+00  0.00000000E+00  0.00000000E+00
  0.00000000E+00  0.00000000E+00  0.00000000E+00
  0.00000000E+00  0.00000000E+00  0.00000000E+00
  0.00000000E+00  0.00000000E+00  0.00000000E+00
  0.00000000E+00  0.00000000E+00  0.00000000E+00
  0.00000000E+00  0.00000000E+00  0.00000000E+00
  0.00000000E+00  0.00000000E+00  0.00000000E+00
  0.00000000E+00  0.00000000E+00  0.00000000E+00
  0.00000000E+00  0.00000000E+00  0.00000000E+00
  0.00000000E+00  0.00000000E+00  0.00000000E+00
  0.00000000E+00  0.00000000E+00  0.00000000E+00
  0.00000000E+00  0.00000000E+00  0.00000000E+00
  0.00000000E+00  0.00000000E+00  0.00000000E+00
  0.00000000E+00  0.00000000E+00  0.00000000E+00
  0.00000000E+00  0.00000000E+00  0.00000000E+00
  0.00000000E+00  0.00000000E+00  0.00000000E+00
  0.00000000E+00  0.00000000E+00  0.00000000E+00
  0.00000000E+00  0.00000000E+00  0.00000000E+00
  0.00000000E+00  0.00000000E+00  0.00000000E+00
  0.00000000E+00  0.00000000E+00  0.00000000E+00
  0.00000000E+00  0.00000000E+00  0.00000000E+00
  0.00000000E+00  0.00000000E+00  0.00000000E+00
  0.00000000E+00  0.00000000E+00  0.00000000E+00
  0.00000000E+00  0.00000000E+00  0.00000000E+00
  0.00000000E+00  0.00000000E+00  0.00000000E+00
  0.00000000E+00  0.00000000E+00  0.00000000E+00
  0.00000000E+00  0.00000000E+00  0.00000000E+00
  0.00000000E+00  0.00000000E+00  0.00000000E+00
  0.00000000E+00  0.00000000E+00  0.00000000E+00
  0.00000000E+00  0.00000000E+00  0.00000000E+00
  0.00000000E+00  0.00000000E+00  0.00000000E+00
  0.00000000E+00  0.00000000E+00  0.00000000E+00
  0.00000000E+00  0.00000000E+00  0.00000000E+00
  0.00000000E+00  0.00000000E+00  0.00000000E+00
  0.00000000E+00  0.00000000E+00  0.00000000E+00
  0.00000000E+00  0.00000000E+00  0.00000000E+00
  0.00000000E+00  0.00000000E+00  0.00000000E+00
  0.00000000E+00  0.00000000E+00  0.00000000E+00
  0.00000000E+00  0.00000000E+00  0.00000000E+00
  0.00000000E+00  0.00000000E+00  0.00000000E+00
  0.00000000E+00  0.00000000E+00  0.00000000E+00
  0.00000000E+00  0.00000000E+00  0.00000000E+00
  0.00000000E+00  0.00000000E+00  0.00000000E+00
  0.00000000E+00  0.00000000E+00  0.00000000E+00
  0.00000000E+00  0.00000000E+00  0.00000000E+00
  0.00000000E+00  0.00000000E+00  0.00000000E+00
  0.00000000E+00  0.00000000E+00  0.00000000E+00
  0.00000000E+00  0.00000000E+00  0.00000000E+00
  0.00000000E+00  0.00000000E+00  0.00000000E+00
  0.00000000E+00  0.00000000E+00  0.00000000E+00
  0.00000000E+00  0.00000000E+00  0.00000000E+00
  0.00000000E+00  0.00000000E+00  0.00000000E+00
  0.00000000E+00  0.00000000E+00  0.00000000E+00
  0.00000000E+00  0.00000000E+00  0.00000000E+00
  0.00000000E+00  0.00000000E+00  0.00000000E+00
  0.00000000E+00  0.00000000E+00  0.00000000E+00
  0.00000000E+00  0.00000000E+00  0.00000000E+00
  0.00000000E+00  0.00000000E+00  0.00000000E+00
  0.00000000E+00  0.00000000E+00  0.00000000E+00
  0.00000000E+00  0.00000000E+00  0.00000000E+00
  0.00000000E+00  0.00000000E+00  0.00000000E+00
  0.00000000E+00  0.00000000E+00  0.00000000E+00
  0.00000000E+00  0.00000000E+00  0.00000000E+00
  0.00000000E+00  0.00000000E+00  0.00000000E+00
  0.00000000E+00  0.00000000E+00  0.00000000E+00
  0.00000000E+00  0.00000000E+00  0.00000000E+00
  0.00000000E+00  0.00000000E+00  0.00000000E+00
  0.00000000E+00  0.00000000E+00  0.00000000E+00
  0.00000000E+00  0.00000000E+00  0.00000000E+00
  0.00000000E+00  0.00000000E+00  0.00000000E+00
  0.00000000E+00  0.00000000E+00  0.00000000E+00
  0.00000000E+00  0.00000000E+00  0.00000000E+00
  0.00000000E+00  0.00000000E+00  0.00000000E+00
  0.00000000E+00  0.00000000E+00  0.00000000E+00
  0.00000000E+00  0.00000000E+00  0.00000000E+00
  0.00000000E+00  0.00000000E+00  0.00000000E+00
  0.00000000E+00  0.00000000E+00  0.00000000E+00
  0.00000000E+00  0.00000000E+00  0.00000000E+00
  0.00000000E+00  0.00000000E+00  0.00000000E+00
  0.00000000E+00  0.00000000E+00  0.00000000E+00
  0.00000000E+00  0.00000000E+00  0.00000000E+00
  0.00000000E+00  0.00000000E+00  0.00000000E+00
  0.00000000E+00  0.00000000E+00  0.00000000E+00
  0.00000000E+00  0.00000000E+00  0.00000000E+00
  0.00000000E+00  0.00000000E+00  0.00000000E+00
  0.00000000E+00  0.00000000E+00  0.00000000E+00
  0.00000000E+00  0.00000000E+00  0.00000000E+00
  0.00000000E+00  0.00000000E+00  0.00000000E+00
  0.00000000E+00  0.00000000E+00  0.00000000E+00
  0.00000000E+00  0.00000000E+00  0.00000000E+00
  0.00000000E+00  0.00000000E+00  0.00000000E+00
  0.00000000E+00  0.00000000E+00  0.00000000E+00
  0.00000000E+00  0.00000000E+00  0.00000000E+00
  0.00000000E+00  0.00000000E+00  0.00000000E+00
  0.00000000E+00  0.00000000E+00  0.00000000E+00
  0.00000000E+00  0.00000000E+00  0.00000000E+00
  0.00000000E+00  0.00000000E+00  0.00000000E+00
  0.00000000E+00  0.00000000E+00  0.00000000E+00
  0.00000000E+00  0.00000000E+00  0.00000000E+00
  0.00000000E+00  0.00000000E+00  0.00000000E+00
  0.00000000E+00  0.00000000E+00  0.00000000E+00
  0.00000000E+00  0.00000000E+00  0.00000000E+00
  0.00000000E+00  0.00000000E+00  0.00000000E+00
  0.00000000E+00  0.00000000E+00  0.00000000E+00
  0.00000000E+00  0.00000000E+00  0.00000000E+00
  0.00000000E+00  0.00000000E+00  0.00000000E+00
  0.00000000E+00  0.00000000E+00  0.00000000E+00
  0.00000000E+00  0.00000000E+00  0.00000000E+00
  0.00000000E+00  0.00000000E+00  0.00000000E+00
  0.00000000E+00  0.00000000E+00  0.00000000E+00
  0.00000000E+00  0.00000000E+00  0.00000000E+00
  0.00000000E+00  0.00000000E+00  0.00000000E+00
