Ti4 O8                                  
   1.00000000000000     
    11.5607959665632993    0.0000000000000000    0.0000000000000000
     0.0000000000000000   11.5607959665632993    0.0000000000000000
     0.0000000000000000    0.0000000000000000   19.2862138499999993
   Ti   O    Co
    71   143     1
Direct
  0.9999389106925989  0.1596452485064006  0.5654584308209465
  0.3049852645567981  0.3319942431236100  0.4486908872788575
  0.1665755146092707  0.9997651713600604  0.8132106961690511
  0.1659412120094714  0.1671122013861321  0.6895641144629323
  0.0018336579480689  0.1668485817300152  0.0627591406426262
  0.3326560355312012  0.3332846454633085  0.9377985628907197
  0.1705825963504637  0.0000073309959774  0.3150268397345002
  0.1670308669796583  0.1606286072417262  0.1871203205345680
  0.0002293485661156  0.5043187533178539  0.5675927235544123
  0.3367355681652029  0.6534923121628751  0.4406803526753933
  0.1660127270742038  0.3354926944455272  0.8130363937482485
  0.1730292998203211  0.5003022813886346  0.6867614494695786
  0.0017773703160415  0.5000182996529645  0.0627257969440365
  0.3327884864102586  0.6670760025134541  0.9378372018129255
  0.1744990278568466  0.3342243606334705  0.3068490377378268
  0.1671062204705720  0.5058457675546535  0.1870539464479606
  0.0000747329656932  0.8316988721018461  0.5649573549658555
  0.3353837620697320  0.9946993326050162  0.4405234014251675
  0.1659750854639697  0.6652192399194945  0.8131085160068778
  0.1675608703952420  0.8330436323801536  0.6889855424049571
  0.0009098486301298  0.8333857715487625  0.0630035463537624
  0.3327451969632875  0.9996256490567674  0.9380310277260406
  0.1709324467937208  0.6685694679333594  0.3153353095410907
  0.1672396733540182  0.8331202067189096  0.1878509071598415
  0.3340110807161238  0.1671282632458855  0.5646156531103870
  0.6871399879499336  0.3337028607472021  0.4469656460613365
  0.4998376673096203  0.9995918480876682  0.8136833038336988
  0.4983516843377700  0.1670081539470800  0.6902503603848302
  0.3346413433345248  0.1668014928583403  0.0621312129327052
  0.6665055175926611  0.3332364831450931  0.9379144804446327
  0.5006518387897643  0.0005486008859066  0.3135322191683159
  0.5001577678151250  0.1623847449228393  0.1862509460095509
  0.6677685904154131  0.6659086010767936  0.4397177969372237
  0.4997247870840482  0.3349629976972111  0.8137825251102200
  0.5006938625282444  0.5002419706555088  0.6888580751906943
  0.3348916995935980  0.5001400933880902  0.0621171772129756
  0.6664983491685419  0.6673466603027407  0.9380101009249344
  0.4810663113077851  0.3340459094666244  0.3051033312585147
  0.5002048432987323  0.5048142948574679  0.1865028285884520
  0.3326304874372994  0.8295204865190229  0.5621937110509094
  0.6670745777594149  0.9991957806314815  0.4394682147290894
  0.4997372743992656  0.6663999455059297  0.8136988629107549
  0.4978625506807219  0.8331813901238974  0.6889408040971929
  0.3342607976889553  0.8332781012917323  0.0629317856387814
  0.6664151067202013  0.9994275188247812  0.9379796051954656
  0.5006991650529073  0.6685163523017721  0.3137028373065860
  0.5009483881338355  0.8335674581003403  0.1872886318525531
  0.6662608744786382  0.1632761828066975  0.5662784388121196
  0.9956774878924577  0.3380760513251175  0.4461284230954732
  0.8336028035739886  0.9997243966067657  0.8138498223976782
  0.8324680131041617  0.1668431492728786  0.6901881076488152
  0.6677293533557602  0.1666939895794428  0.0620089180538912
  0.9999832242351587  0.3332314234262981  0.9381850713402642
  0.8336353902141482  0.9995859266530474  0.3139670212735695
  0.8324714654881191  0.1638194967265463  0.1866041990200316
  0.6632247533485369  0.5031435519601857  0.5674632516376121
  0.0009351501507098  0.6702895167786735  0.4381093034755565
  0.8332835603722302  0.3345474830217583  0.8137796601162819
  0.8349129208570005  0.5003339449505617  0.6890792338695491
  0.6676327954776511  0.5000388400666509  0.0619933557895322
  0.0000598450203455  0.6669284813595766  0.9382500035877896
  0.8628817623907494  0.3331142620128986  0.3056364123295978
  0.8324939690384809  0.5031974130317565  0.1866326082794529
  0.6656938630848543  0.8329402404550308  0.5650863029889948
  0.9999351189995025  0.0024173457976815  0.4378649872850673
  0.8332323478863017  0.6664414654973143  0.8138258059044503
  0.8326453507093348  0.8332794299425785  0.6891871440745021
  0.6681637082927239  0.8333405835895320  0.0630467942903508
  0.0001035559520446  0.9998051139384643  0.9382781675646399
  0.8337705616791240  0.6665646468794790  0.3142082227726348
  0.8343037729600482  0.8333266430860959  0.1881263732167113
  0.3324147813224627  0.1665820851716120  0.6677280499959437
  0.1638878314026968  0.1635292318303030  0.5858525168934534
  0.9956143187721196  0.1652676491111933  0.4610758111374551
  0.3203080543546051  0.3307680507378024  0.5451930711188879
  0.1561716381236593  0.3331193932195120  0.4206528869682842
  0.0001371204429219  0.9998321804590447  0.8356363151403343
  0.1661339843023839  0.9997419938710195  0.7106183242966111
  0.1662882077561321  0.1664417267106302  0.7921249311548166
  0.3346591276848230  0.1641276414342769  0.1655979808334749
  0.1677441739270691  0.1662140173202005  0.0845958841760037
  0.0003345344129926  0.1666893917802739  0.9604002050261045
  0.3341790028823510  0.3333840756190085  0.0417979621903513
  0.1666159513532293  0.3334359945039438  0.9172301368809244
  0.0002553335468605  0.0025590177301353  0.3351359193288204
  0.1674742908830567  0.9991989967884294  0.2095579359360542
  0.1721353177980305  0.1661869373473337  0.2910076240682287
  0.3338144151486659  0.5009644239426123  0.6735732419328997
  0.1582366557910362  0.5010662976818026  0.5872718286632264
  0.9949079883397403  0.4995559366552840  0.4601538859722396
  0.3294375035205945  0.6697055260665579  0.5396455826389612
  0.1678365456574227  0.6626780302326623  0.4167330265541551
  0.9999336089535262  0.3328395128163990  0.8357146684980563
  0.1660476546709404  0.3331330603667482  0.7106779645590677
  0.1653976683097298  0.5000218940272916  0.7934713989286948
  0.3347693501280347  0.5029013282942643  0.1656118312323400
  0.1678012389989618  0.5005352413014776  0.0847054900074156
  0.0003471920178271  0.4999803797065994  0.9604191610115080
  0.3340723905844314  0.6669813494303156  0.0416773291149184
  0.1666169344814463  0.6667785693404156  0.9172644846042104
  0.0110316261703360  0.3335710058192305  0.3288423079586877
  0.1730652865764100  0.3334861134068063  0.2098532767781194
  0.1728876819214094  0.5001955570760330  0.2913623456000209
  0.3325891890893402  0.8326512215940340  0.6670449517983457
  0.1657300441536051  0.8336937979341030  0.5854877226229931
  0.0018796135014085  0.8330548234908619  0.4596013627146291
  0.3314346834205679  0.0012946328188050  0.5406226753485797
  0.1675925788953307  0.0025111529626827  0.4165116641003479
  0.9999639136727225  0.6674108140829418  0.8357250319444987
  0.1661360366325653  0.6670623982511259  0.7108518335842220
  0.1666283190088578  0.8334887469911934  0.7921184387129898
  0.3343612984219462  0.8334021968669916  0.1666107122033864
  0.1675476394825282  0.8332990233449209  0.0853125761659967
  0.0001674469239603  0.8334303341510605  0.9603706382809634
  0.3340330030713119  0.9998054371684901  0.0416355307216776
  0.1666339863744852  0.9998878050067432  0.9172313208185940
  0.0006522297504929  0.6655709463994128  0.3351922401818115
  0.1675693480900549  0.6674323371326025  0.2098197047312027
  0.1671390391193839  0.8335125789360163  0.2920210868832029
  0.6656539140157918  0.1655840885132775  0.6687015370770624
  0.4992298544746703  0.1673230427681673  0.5861096649868074
  0.3394220527956975  0.1714770530096530  0.4600059929287923
  0.6675954879692227  0.3325112863269410  0.5452803518331777
  0.3330998914381667  0.9998522868177346  0.8354755472493309
  0.4988009218515757  0.9998450523173190  0.7107655872917888
  0.4994105096461254  0.1663206543333686  0.7926332342277576
  0.6680302020462676  0.1662819059208616  0.1662989505139549
  0.5013772218686938  0.1660170501617984  0.0835220787664639
  0.3330986963790323  0.1666547290418450  0.9597981111124696
  0.6683153002261690  0.3333566839051514  0.0419001578163005
  0.5000521604670354  0.3332658233755765  0.9174482300010354
  0.3346584589243164  0.9985714253804190  0.3343964579549734
  0.5028040480039380  0.9990041578398703  0.2087300966127970
  0.4952491556609857  0.1657608045938304  0.2885168313530926
  0.6669629151194272  0.5011795442411895  0.6704513562498988
  0.5051068473894418  0.4997834637221459  0.5881322537403264
  0.3439748721073954  0.4947505758932493  0.4536983725142889
  0.6652160099764046  0.6685223668225149  0.5424970987188757
  0.5026280199073341  0.6656801798662926  0.4164123658104657
  0.3331959555642925  0.3335316285775676  0.8354484651048679
  0.5002586089943222  0.3329472968981619  0.7114479651599979
  0.5010953073959712  0.5001666105601217  0.7940973088769283
  0.6680307026239234  0.5006484411334924  0.1663642397093241
  0.5014364004579051  0.5007975276078724  0.0835724157811981
  0.3332372070538696  0.5001114360824133  0.9598170690548073
  0.6681238131126008  0.6669735551685392  0.0418679587496129
  0.5000572175884699  0.6671041865638685  0.9174296378558751
  0.3341621230621286  0.3316666653145361  0.3427990647681369
  0.5001291498697853  0.3335105670692613  0.2067558657657145
  0.4947120064051589  0.5011704606722347  0.2886585324590314
  0.6659199372066595  0.8337633783435408  0.6673632140243555
  0.4989631704241120  0.8330677432380611  0.5857473056523617
  0.3359022341623614  0.8355344194037215  0.4587527913982257
  0.6639901151711669  0.9990626354802998  0.5426967017139006
  0.5018315633109793  0.0020840478631641  0.4163129927681553
  0.3332328697621776  0.6667955416947251  0.8354549195149588
  0.5003869590519443  0.6675788463374275  0.7113906391743754
  0.4994198927846440  0.8337693452316088  0.7925403616248090
  0.6685834325679778  0.8335299548014135  0.1664170048449662
  0.5011531128699076  0.8334757830928012  0.0847983438555175
  0.3331278233166444  0.8334036530681743  0.9600662331386971
  0.6680890146791967  0.9998809693136010  0.0417664723718829
  0.5000069644340286  0.9998743001612382  0.9172426989271258
  0.3349892324461408  0.6685443390037662  0.3345024694039793
  0.5029850273724179  0.6682019061344562  0.2088712650596349
  0.5015966636902789  0.8337298049109236  0.2913248206628438
  0.9989939992618773  0.1661457275010818  0.6680157838063820
  0.8323979381763706  0.1636471487934656  0.5869823860889980
  0.6736418529020725  0.1660628262862218  0.4632140864407930
  0.9944966937583857  0.3326640007497019  0.5423355351414116
  0.8342581001202660  0.3333745222473468  0.4078706788995277
  0.6666179906229956  0.9997973798003699  0.8355721409373942
  0.8330926442705362  0.9996678111265069  0.7110218941620730
  0.8334254410781696  0.1662152858934149  0.7929429348995285
  0.0022004761548970  0.1657936072985038  0.1669064056308756
  0.8346999434817164  0.1658681441888277  0.0848463794033023
  0.6669033840467904  0.1666270907975189  0.9600161414746893
  0.0011082965448992  0.3333367465331349  0.0421848904062614
  0.8335798494966511  0.3333742576254650  0.9175928171265895
  0.6672660411465330  0.0023076384187277  0.3349332485780039
  0.8348721396069720  0.0003123228174147  0.2102227515006092
  0.8312184519926191  0.1698031368199082  0.2912487001585049
  0.9972605156058805  0.5009178060927439  0.6696412030623762
  0.8321150628374383  0.5017383147584908  0.5881991864899447
  0.6733416575919335  0.5005484820320589  0.4631181510872722
  0.9985457141771050  0.6678275659037496  0.5417039181032095
  0.8338449105970867  0.6682288900354934  0.4163532863671406
  0.6668159772247719  0.3327338870257677  0.8357604998559580
  0.8326171714074917  0.3327893768900623  0.7114608466750312
  0.8335004295047668  0.5001250540225186  0.7940822605450819
  0.0022745141233571  0.5010246331658479  0.1669593543218610
  0.8347291490037634  0.5008585611359351  0.0848850906997001
  0.6668125045188731  0.5000892505833150  0.9600337512611503
  0.0012269920927537  0.6668051076535306  0.0420312394106048
  0.8335683592320322  0.6668826793989240  0.9176129264103423
  0.5865743128794776  0.3330671870150255  0.3747145207977525
  0.8395284354849295  0.3334105591593399  0.2070376877784383
  0.8314427122462078  0.4970466672433318  0.2913066292901618
  0.9994890850431730  0.8329517903176935  0.6670146038258764
  0.8326587476796519  0.8335552197935883  0.5859614609611370
  0.6677155553905010  0.8338096268962687  0.4603474937335008
  0.9988809277743158  0.9984933113229104  0.5420780597121109
  0.8335877393162434  0.9982559333476217  0.4163578589221970
  0.6668173940700513  0.6676847033715205  0.8357743321630480
  0.8327498329246197  0.6676514937562814  0.7115376285358224
  0.8334550421230844  0.8337232875498231  0.7927037778355270
  0.0008638790981550  0.8333862174347075  0.1669038616448120
  0.8346952898353663  0.8334269088500363  0.0851643560987583
  0.6668490047501194  0.8334796512732936  0.9600791288495074
  0.0012372765533115  0.9999449701116276  0.0419804321492734
  0.8335478946388619  0.9999018963096589  0.9173666195909291
  0.6676027358787096  0.6647396933525371  0.3348763013315263
  0.8349242120039122  0.6665340133513595  0.2102155250968707
  0.8335035520809768  0.8335061206564163  0.2918884817375726
  0.3338124520015811  0.5014962126836622  0.5688373715083657
 
  0.00000000E+00  0.00000000E+00  0.00000000E+00
  0.00000000E+00  0.00000000E+00  0.00000000E+00
  0.00000000E+00  0.00000000E+00  0.00000000E+00
  0.00000000E+00  0.00000000E+00  0.00000000E+00
  0.00000000E+00  0.00000000E+00  0.00000000E+00
  0.00000000E+00  0.00000000E+00  0.00000000E+00
  0.00000000E+00  0.00000000E+00  0.00000000E+00
  0.00000000E+00  0.00000000E+00  0.00000000E+00
  0.00000000E+00  0.00000000E+00  0.00000000E+00
  0.00000000E+00  0.00000000E+00  0.00000000E+00
  0.00000000E+00  0.00000000E+00  0.00000000E+00
  0.00000000E+00  0.00000000E+00  0.00000000E+00
  0.00000000E+00  0.00000000E+00  0.00000000E+00
  0.00000000E+00  0.00000000E+00  0.00000000E+00
  0.00000000E+00  0.00000000E+00  0.00000000E+00
  0.00000000E+00  0.00000000E+00  0.00000000E+00
  0.00000000E+00  0.00000000E+00  0.00000000E+00
  0.00000000E+00  0.00000000E+00  0.00000000E+00
  0.00000000E+00  0.00000000E+00  0.00000000E+00
  0.00000000E+00  0.00000000E+00  0.00000000E+00
  0.00000000E+00  0.00000000E+00  0.00000000E+00
  0.00000000E+00  0.00000000E+00  0.00000000E+00
  0.00000000E+00  0.00000000E+00  0.00000000E+00
  0.00000000E+00  0.00000000E+00  0.00000000E+00
  0.00000000E+00  0.00000000E+00  0.00000000E+00
  0.00000000E+00  0.00000000E+00  0.00000000E+00
  0.00000000E+00  0.00000000E+00  0.00000000E+00
  0.00000000E+00  0.00000000E+00  0.00000000E+00
  0.00000000E+00  0.00000000E+00  0.00000000E+00
  0.00000000E+00  0.00000000E+00  0.00000000E+00
  0.00000000E+00  0.00000000E+00  0.00000000E+00
  0.00000000E+00  0.00000000E+00  0.00000000E+00
  0.00000000E+00  0.00000000E+00  0.00000000E+00
  0.00000000E+00  0.00000000E+00  0.00000000E+00
  0.00000000E+00  0.00000000E+00  0.00000000E+00
  0.00000000E+00  0.00000000E+00  0.00000000E+00
  0.00000000E+00  0.00000000E+00  0.00000000E+00
  0.00000000E+00  0.00000000E+00  0.00000000E+00
  0.00000000E+00  0.00000000E+00  0.00000000E+00
  0.00000000E+00  0.00000000E+00  0.00000000E+00
  0.00000000E+00  0.00000000E+00  0.00000000E+00
  0.00000000E+00  0.00000000E+00  0.00000000E+00
  0.00000000E+00  0.00000000E+00  0.00000000E+00
  0.00000000E+00  0.00000000E+00  0.00000000E+00
  0.00000000E+00  0.00000000E+00  0.00000000E+00
  0.00000000E+00  0.00000000E+00  0.00000000E+00
  0.00000000E+00  0.00000000E+00  0.00000000E+00
  0.00000000E+00  0.00000000E+00  0.00000000E+00
  0.00000000E+00  0.00000000E+00  0.00000000E+00
  0.00000000E+00  0.00000000E+00  0.00000000E+00
  0.00000000E+00  0.00000000E+00  0.00000000E+00
  0.00000000E+00  0.00000000E+00  0.00000000E+00
  0.00000000E+00  0.00000000E+00  0.00000000E+00
  0.00000000E+00  0.00000000E+00  0.00000000E+00
  0.00000000E+00  0.00000000E+00  0.00000000E+00
  0.00000000E+00  0.00000000E+00  0.00000000E+00
  0.00000000E+00  0.00000000E+00  0.00000000E+00
  0.00000000E+00  0.00000000E+00  0.00000000E+00
  0.00000000E+00  0.00000000E+00  0.00000000E+00
  0.00000000E+00  0.00000000E+00  0.00000000E+00
  0.00000000E+00  0.00000000E+00  0.00000000E+00
  0.00000000E+00  0.00000000E+00  0.00000000E+00
  0.00000000E+00  0.00000000E+00  0.00000000E+00
  0.00000000E+00  0.00000000E+00  0.00000000E+00
  0.00000000E+00  0.00000000E+00  0.00000000E+00
  0.00000000E+00  0.00000000E+00  0.00000000E+00
  0.00000000E+00  0.00000000E+00  0.00000000E+00
  0.00000000E+00  0.00000000E+00  0.00000000E+00
  0.00000000E+00  0.00000000E+00  0.00000000E+00
  0.00000000E+00  0.00000000E+00  0.00000000E+00
  0.00000000E+00  0.00000000E+00  0.00000000E+00
  0.00000000E+00  0.00000000E+00  0.00000000E+00
  0.00000000E+00  0.00000000E+00  0.00000000E+00
  0.00000000E+00  0.00000000E+00  0.00000000E+00
  0.00000000E+00  0.00000000E+00  0.00000000E+00
  0.00000000E+00  0.00000000E+00  0.00000000E+00
  0.00000000E+00  0.00000000E+00  0.00000000E+00
  0.00000000E+00  0.00000000E+00  0.00000000E+00
  0.00000000E+00  0.00000000E+00  0.00000000E+00
  0.00000000E+00  0.00000000E+00  0.00000000E+00
  0.00000000E+00  0.00000000E+00  0.00000000E+00
  0.00000000E+00  0.00000000E+00  0.00000000E+00
  0.00000000E+00  0.00000000E+00  0.00000000E+00
  0.00000000E+00  0.00000000E+00  0.00000000E+00
  0.00000000E+00  0.00000000E+00  0.00000000E+00
  0.00000000E+00  0.00000000E+00  0.00000000E+00
  0.00000000E+00  0.00000000E+00  0.00000000E+00
  0.00000000E+00  0.00000000E+00  0.00000000E+00
  0.00000000E+00  0.00000000E+00  0.00000000E+00
  0.00000000E+00  0.00000000E+00  0.00000000E+00
  0.00000000E+00  0.00000000E+00  0.00000000E+00
  0.00000000E+00  0.00000000E+00  0.00000000E+00
  0.00000000E+00  0.00000000E+00  0.00000000E+00
  0.00000000E+00  0.00000000E+00  0.00000000E+00
  0.00000000E+00  0.00000000E+00  0.00000000E+00
  0.00000000E+00  0.00000000E+00  0.00000000E+00
  0.00000000E+00  0.00000000E+00  0.00000000E+00
  0.00000000E+00  0.00000000E+00  0.00000000E+00
  0.00000000E+00  0.00000000E+00  0.00000000E+00
  0.00000000E+00  0.00000000E+00  0.00000000E+00
  0.00000000E+00  0.00000000E+00  0.00000000E+00
  0.00000000E+00  0.00000000E+00  0.00000000E+00
  0.00000000E+00  0.00000000E+00  0.00000000E+00
  0.00000000E+00  0.00000000E+00  0.00000000E+00
  0.00000000E+00  0.00000000E+00  0.00000000E+00
  0.00000000E+00  0.00000000E+00  0.00000000E+00
  0.00000000E+00  0.00000000E+00  0.00000000E+00
  0.00000000E+00  0.00000000E+00  0.00000000E+00
  0.00000000E+00  0.00000000E+00  0.00000000E+00
  0.00000000E+00  0.00000000E+00  0.00000000E+00
  0.00000000E+00  0.00000000E+00  0.00000000E+00
  0.00000000E+00  0.00000000E+00  0.00000000E+00
  0.00000000E+00  0.00000000E+00  0.00000000E+00
  0.00000000E+00  0.00000000E+00  0.00000000E+00
  0.00000000E+00  0.00000000E+00  0.00000000E+00
  0.00000000E+00  0.00000000E+00  0.00000000E+00
  0.00000000E+00  0.00000000E+00  0.00000000E+00
  0.00000000E+00  0.00000000E+00  0.00000000E+00
  0.00000000E+00  0.00000000E+00  0.00000000E+00
  0.00000000E+00  0.00000000E+00  0.00000000E+00
  0.00000000E+00  0.00000000E+00  0.00000000E+00
  0.00000000E+00  0.00000000E+00  0.00000000E+00
  0.00000000E+00  0.00000000E+00  0.00000000E+00
  0.00000000E+00  0.00000000E+00  0.00000000E+00
  0.00000000E+00  0.00000000E+00  0.00000000E+00
  0.00000000E+00  0.00000000E+00  0.00000000E+00
  0.00000000E+00  0.00000000E+00  0.00000000E+00
  0.00000000E+00  0.00000000E+00  0.00000000E+00
  0.00000000E+00  0.00000000E+00  0.00000000E+00
  0.00000000E+00  0.00000000E+00  0.00000000E+00
  0.00000000E+00  0.00000000E+00  0.00000000E+00
  0.00000000E+00  0.00000000E+00  0.00000000E+00
  0.00000000E+00  0.00000000E+00  0.00000000E+00
  0.00000000E+00  0.00000000E+00  0.00000000E+00
  0.00000000E+00  0.00000000E+00  0.00000000E+00
  0.00000000E+00  0.00000000E+00  0.00000000E+00
  0.00000000E+00  0.00000000E+00  0.00000000E+00
  0.00000000E+00  0.00000000E+00  0.00000000E+00
  0.00000000E+00  0.00000000E+00  0.00000000E+00
  0.00000000E+00  0.00000000E+00  0.00000000E+00
  0.00000000E+00  0.00000000E+00  0.00000000E+00
  0.00000000E+00  0.00000000E+00  0.00000000E+00
  0.00000000E+00  0.00000000E+00  0.00000000E+00
  0.00000000E+00  0.00000000E+00  0.00000000E+00
  0.00000000E+00  0.00000000E+00  0.00000000E+00
  0.00000000E+00  0.00000000E+00  0.00000000E+00
  0.00000000E+00  0.00000000E+00  0.00000000E+00
  0.00000000E+00  0.00000000E+00  0.00000000E+00
  0.00000000E+00  0.00000000E+00  0.00000000E+00
  0.00000000E+00  0.00000000E+00  0.00000000E+00
  0.00000000E+00  0.00000000E+00  0.00000000E+00
  0.00000000E+00  0.00000000E+00  0.00000000E+00
  0.00000000E+00  0.00000000E+00  0.00000000E+00
  0.00000000E+00  0.00000000E+00  0.00000000E+00
  0.00000000E+00  0.00000000E+00  0.00000000E+00
  0.00000000E+00  0.00000000E+00  0.00000000E+00
  0.00000000E+00  0.00000000E+00  0.00000000E+00
  0.00000000E+00  0.00000000E+00  0.00000000E+00
  0.00000000E+00  0.00000000E+00  0.00000000E+00
  0.00000000E+00  0.00000000E+00  0.00000000E+00
  0.00000000E+00  0.00000000E+00  0.00000000E+00
  0.00000000E+00  0.00000000E+00  0.00000000E+00
  0.00000000E+00  0.00000000E+00  0.00000000E+00
  0.00000000E+00  0.00000000E+00  0.00000000E+00
  0.00000000E+00  0.00000000E+00  0.00000000E+00
  0.00000000E+00  0.00000000E+00  0.00000000E+00
  0.00000000E+00  0.00000000E+00  0.00000000E+00
  0.00000000E+00  0.00000000E+00  0.00000000E+00
  0.00000000E+00  0.00000000E+00  0.00000000E+00
  0.00000000E+00  0.00000000E+00  0.00000000E+00
  0.00000000E+00  0.00000000E+00  0.00000000E+00
  0.00000000E+00  0.00000000E+00  0.00000000E+00
  0.00000000E+00  0.00000000E+00  0.00000000E+00
  0.00000000E+00  0.00000000E+00  0.00000000E+00
  0.00000000E+00  0.00000000E+00  0.00000000E+00
  0.00000000E+00  0.00000000E+00  0.00000000E+00
  0.00000000E+00  0.00000000E+00  0.00000000E+00
  0.00000000E+00  0.00000000E+00  0.00000000E+00
  0.00000000E+00  0.00000000E+00  0.00000000E+00
  0.00000000E+00  0.00000000E+00  0.00000000E+00
  0.00000000E+00  0.00000000E+00  0.00000000E+00
  0.00000000E+00  0.00000000E+00  0.00000000E+00
  0.00000000E+00  0.00000000E+00  0.00000000E+00
  0.00000000E+00  0.00000000E+00  0.00000000E+00
  0.00000000E+00  0.00000000E+00  0.00000000E+00
  0.00000000E+00  0.00000000E+00  0.00000000E+00
  0.00000000E+00  0.00000000E+00  0.00000000E+00
  0.00000000E+00  0.00000000E+00  0.00000000E+00
  0.00000000E+00  0.00000000E+00  0.00000000E+00
  0.00000000E+00  0.00000000E+00  0.00000000E+00
  0.00000000E+00  0.00000000E+00  0.00000000E+00
  0.00000000E+00  0.00000000E+00  0.00000000E+00
  0.00000000E+00  0.00000000E+00  0.00000000E+00
  0.00000000E+00  0.00000000E+00  0.00000000E+00
  0.00000000E+00  0.00000000E+00  0.00000000E+00
  0.00000000E+00  0.00000000E+00  0.00000000E+00
  0.00000000E+00  0.00000000E+00  0.00000000E+00
  0.00000000E+00  0.00000000E+00  0.00000000E+00
  0.00000000E+00  0.00000000E+00  0.00000000E+00
  0.00000000E+00  0.00000000E+00  0.00000000E+00
  0.00000000E+00  0.00000000E+00  0.00000000E+00
  0.00000000E+00  0.00000000E+00  0.00000000E+00
  0.00000000E+00  0.00000000E+00  0.00000000E+00
  0.00000000E+00  0.00000000E+00  0.00000000E+00
  0.00000000E+00  0.00000000E+00  0.00000000E+00
  0.00000000E+00  0.00000000E+00  0.00000000E+00
  0.00000000E+00  0.00000000E+00  0.00000000E+00
  0.00000000E+00  0.00000000E+00  0.00000000E+00
  0.00000000E+00  0.00000000E+00  0.00000000E+00
  0.00000000E+00  0.00000000E+00  0.00000000E+00
  0.00000000E+00  0.00000000E+00  0.00000000E+00
  0.00000000E+00  0.00000000E+00  0.00000000E+00
  0.00000000E+00  0.00000000E+00  0.00000000E+00
  0.00000000E+00  0.00000000E+00  0.00000000E+00
  0.00000000E+00  0.00000000E+00  0.00000000E+00
