Ti4 O8                                  
   1.00000000000000     
    11.5607959665632993    0.0000000000000000    0.0000000000000000
     0.0000000000000000   11.5607959665632993    0.0000000000000000
     0.0000000000000000    0.0000000000000000   19.2862138499999993
   Ti   O    Co
    71   143     1
Direct
  0.0011170299926562  0.1658466427120402  0.5635828498056483
  0.3326923059063489  0.3250802809563993  0.4376245616404546
  0.1688171039073936  0.0008598768676720  0.8151151268006771
  0.1642976649702916  0.1670150183790327  0.6897604915686983
  0.9993786389573316  0.1666886132920240  0.0641211664919510
  0.3344924874736037  0.3332853766887141  0.9401187658560701
  0.1662573245914132  0.0009160859992505  0.3134207062410539
  0.1662631112596884  0.1661110220862341  0.1884707506318932
  0.9686968380664354  0.4996006826374568  0.5557908957957238
  0.3334849480549735  0.6582361514573165  0.4403705001196130
  0.1682213475180561  0.3316692457896622  0.8156052055230631
  0.1510929163404100  0.5008943191325415  0.6958212770373748
  0.9994078522970327  0.5002273893921299  0.0642226646990309
  0.3344844004693712  0.6668882704721142  0.9401846149915301
  0.1661878636422358  0.3342770007298554  0.3124253689148446
  0.1663058900908325  0.5002877313023504  0.1885543924511524
  0.0011585102903453  0.8329572293047818  0.5636566969035357
  0.3315567409737454  0.9940970073064008  0.4388810895636084
  0.1683500835804139  0.6705719032761408  0.8158298850571128
  0.1641115276386245  0.8340245338321211  0.6897033240534824
  0.9993846623817575  0.8338564744455894  0.0641320179644893
  0.3349015986425172  0.0001113384548574  0.9392273657506394
  0.1675687093290605  0.6679376677730033  0.3129892332432078
  0.1662731677098890  0.8337387676652241  0.1884957814062389
  0.3322579752566668  0.1674487349530125  0.5620568624359592
  0.6652338034985164  0.3280128077976698  0.4372861687253575
  0.5018580969783102  0.0004510793602464  0.8137185314995818
  0.4953197041753583  0.1673911750102235  0.6885672650775945
  0.3330427080400682  0.1664506627319895  0.0642611956808850
  0.6677697453844047  0.3336892768337947  0.9392519826717347
  0.4971159273508690  0.0009153504333810  0.3133587722820437
  0.5001005628174724  0.1663371699260310  0.1885410033962103
  0.6653905332758967  0.6706357620104555  0.4369694929647494
  0.4999838230175442  0.3328669236589263  0.8149605788926877
  0.5273195229248770  0.5007028815708097  0.6933479767849633
  0.3331093571005681  0.5002576203587736  0.0643001549086151
  0.6677389882686029  0.6667406605445407  0.9393392099996305
  0.4970992395823188  0.3341878318663163  0.3126238123275158
  0.5000623202974879  0.5003434406036362  0.1887261485041662
  0.3323598714065952  0.8303833610325455  0.5618102518346788
  0.6648159562460876  0.9991863459242012  0.4374641039751168
  0.5002294582681230  0.6685049594457766  0.8150853784180256
  0.4946345994913202  0.8334577533980010  0.6884677778299846
  0.3330602461980305  0.8341580549549334  0.0642804895465545
  0.6669107982217710  0.0002262572344094  0.9391681776918972
  0.4956856271676529  0.6680287506615912  0.3131883622269598
  0.5001321611844673  0.8335262862972215  0.1885645486934706
  0.6646953397786888  0.1661747455225253  0.5643676416424128
  0.0005456446974534  0.3303689623391151  0.4363988029783954
  0.8349715677353728  0.0003522798800120  0.8146973762786445
  0.8316735176516445  0.1663507310242451  0.6875263936451788
  0.6663216329257082  0.1668314943345024  0.0638082014172952
  0.0018881429176858  0.3334182311886948  0.9399057105499082
  0.8319331913267121  0.0001627791485106  0.3132726009408984
  0.8329548373018199  0.1667745653897086  0.1887101464310632
  0.6552287878747478  0.5007738732496776  0.5578384321108558
  0.0014619322219644  0.6682971108257192  0.4363032488336884
  0.8347523747891401  0.3284535813814671  0.8153581649374999
  0.8408451958540439  0.5004959318865900  0.6945950761143109
  0.6662380605779745  0.5002191733233232  0.0639711427690415
  0.0017672150890391  0.6668147347115720  0.9399923031874096
  0.8308218777004654  0.3336162639357383  0.3132018461683970
  0.8330529019923532  0.5004421429173860  0.1887682330418983
  0.6649313008594646  0.8341797002954152  0.5644782799180490
  0.9984812049470548  0.9992655248840663  0.4376520523720515
  0.8349188849299765  0.6721591850498640  0.8154029619351277
  0.8313921392330954  0.8346147171190736  0.6875571912038225
  0.6663492212916111  0.8337104244795981  0.0638267607592837
  0.0009296170632282  0.0001446468884438  0.9393101749010526
  0.8309383213334343  0.6668888312902723  0.3135829073909875
  0.8329905300457341  0.8334049467896207  0.1887342654467190
  0.3319535183426296  0.1688498334438506  0.6676975304740296
  0.1651924702934835  0.1672116169963545  0.5859087729400088
  0.9983614634907525  0.1663582194941782  0.4603560691102331
  0.3376334527376272  0.3249986446009032  0.5378235764485737
  0.1643952880140418  0.3317919926150736  0.4157622845089364
  0.0003523583845677  0.0004417125631804  0.8360511156844979
  0.1651457942787928  0.0003579692276077  0.7115833703894126
  0.1696830614650793  0.1655204834707860  0.7939231141890559
  0.3330516413768194  0.1666240677769935  0.1670143601577223
  0.1663507091855934  0.1667413022152076  0.0852118041106067
  0.0003425663770429  0.1667474873163570  0.9608437721789613
  0.3334278760770530  0.3335530283525543  0.0426416645545586
  0.1678358685173222  0.3328975434215238  0.9192402248044900
  0.9979462334315912  0.0002585353445781  0.3349062077248703
  0.1660681735276484  0.0000647234135869  0.2095035469908026
  0.1644144318622907  0.1664797298990166  0.2912893099652223
  0.2574294273778222  0.5023536816824219  0.6332512271277722
  0.9930223302377783  0.4995810269401133  0.4567265822470858
  0.3378725221659593  0.6738427339117621  0.5388350348667572
  0.1648905340198326  0.6653665521914718  0.4163511883726088
  0.0011823923790644  0.3321131385677774  0.8369719325282574
  0.1572109063827867  0.3308823660526770  0.7145151711502251
  0.1717508117693143  0.5003664849458573  0.7963835531964492
  0.3330629074626827  0.5001319546874612  0.1670157898216473
  0.1663809182389500  0.5003168317167308  0.0852963938125910
  0.0005396571391501  0.5002425614033328  0.9608388961226240
  0.3334406045008507  0.6669591060932234  0.0426594338485558
  0.1678000937341224  0.6676725704737336  0.9193720019971821
  0.9979265112599265  0.3328504405146617  0.3346058624470345
  0.1660340380499647  0.3334997634910266  0.2096181454182400
  0.1646784862779640  0.5000716227277735  0.2915230766781249
  0.3319337300032288  0.8315795404556496  0.6681282185979640
  0.1651910579092473  0.8322077884704839  0.5860875953180198
  0.9987491113900901  0.8328382016946136  0.4603973897997449
  0.3328240011331829  0.9999115111711703  0.5399903782785458
  0.1639401785089163  0.9992328346287636  0.4157401869302433
  0.0010795010400315  0.6687215313792265  0.8370991886301979
  0.1559722038932989  0.6703686523908559  0.7149553997338245
  0.1698086240994172  0.8355045390811071  0.7942356596647357
  0.3330656512109940  0.8336772167985202  0.1669980455503151
  0.1663505003415580  0.8336415872252019  0.0852550801520380
  0.0003630487201391  0.8337991945746950  0.9608719003351283
  0.3332944135573328  0.0002607627731592  0.0426362032922682
  0.1675003951207827  0.0003721058226134  0.9180246238142828
  0.9983188056643328  0.6679574514128248  0.3349244675712981
  0.1664318055213059  0.6668498687498641  0.2098361258290709
  0.1645832156812048  0.8336256462525355  0.2914341372723399
  0.6664350170404632  0.1690869440935217  0.6672020419723665
  0.4994725318704170  0.1637968396848279  0.5862702790055749
  0.3292830391002184  0.1638904446485725  0.4573086458059308
  0.6609860993871877  0.3319607866788203  0.5411276405661312
  0.4985963151338879  0.3292323114295428  0.4152131543763886
  0.3350732290818570  0.0006126469675749  0.8363343730145303
  0.4986153193991072  0.0003903167263601  0.7106150843723285
  0.5011141018413099  0.1673912436759508  0.7919662213529080
  0.6664924961637411  0.1667361600804753  0.1668557114627234
  0.4999749339394981  0.1667557788593896  0.0851478566982777
  0.3348804319510421  0.1667384288708291  0.9609139430121942
  0.6665854204098949  0.3336637638208231  0.0420960706442060
  0.5013826708893916  0.3333387698820687  0.9176373675734624
  0.3318366280466520  0.9998315669730999  0.3334247659066705
  0.4999435407746518  0.0000746977709483  0.2096189607156376
  0.4992781680253913  0.1664449982072256  0.2912589131273009
  0.6775430189586444  0.5002752035752778  0.6731740226138712
  0.5030459417779980  0.5014447092253107  0.5951913245695550
  0.3320036063882270  0.4980638955082810  0.4542365492020579
  0.6619323324631807  0.6676392120882539  0.5413359831761966
  0.4984869848756261  0.6676990509889649  0.4156548189261713
  0.3346599679981281  0.3320600934283604  0.8364835017533778
  0.4976045228348909  0.3362873501929258  0.7109600791905990
  0.5030087549138500  0.5004274060166054  0.7947993362182473
  0.6664181582855164  0.5002990893142538  0.1669578427235123
  0.4999772949914458  0.5002933119195063  0.0852333876047098
  0.3348639879930602  0.5002589482650208  0.9608133953786506
  0.6666594386694058  0.6668282697996588  0.0421223315112869
  0.5013938735685102  0.6672443560258756  0.9177728239975096
  0.3315340610013777  0.3320533257146749  0.3326085924967828
  0.4999441296619196  0.3334534619459149  0.2095195304849966
  0.4985470110706416  0.5000914744021898  0.2915407434738881
  0.6666951120628823  0.8318261593814142  0.6672260246944148
  0.4995605630177806  0.8357548160807795  0.5864491666128018
  0.3296623947423001  0.8349724052462193  0.4578902187909790
  0.6665034082834254  0.9997465775938821  0.5418642123146640
  0.4990685642379376  0.9993135460044300  0.4159918448124174
  0.3346429892002902  0.6687448763854675  0.8365501702804465
  0.4981710449719472  0.6648770033004610  0.7112881897969459
  0.5010429776991145  0.8336066070814283  0.7922222803211625
  0.6664934312773383  0.8334338715515059  0.1668848809551875
  0.5000003404704572  0.8336564310187384  0.0851861099444235
  0.3348539804098678  0.8338629057728397  0.9609127319459247
  0.6664514455431529  0.0002563903629422  0.0421535545189968
  0.5012032823149610  0.0002856180643818  0.9174921166901200
  0.3316233439277454  0.6675974486149912  0.3330399551827981
  0.4996085144359839  0.6668901547057686  0.2096563036355690
  0.4991529607390888  0.8336636832744375  0.2913876841473169
  0.9993133804485339  0.1646032502121670  0.6667584650627347
  0.8327455038971436  0.1679938877459577  0.5855501545488551
  0.6653963615752403  0.1655090421022152  0.4598281305754028
  0.0009663138174787  0.3357817204162998  0.5410465105350752
  0.8305807182197356  0.3317831295718321  0.4166997141988276
  0.6672264653821003  0.0004575960012758  0.8356244246868414
  0.8321255322188037  0.0003726268197894  0.7106937165278069
  0.8338242888083940  0.1666095815429784  0.7926986143239176
  0.9994270517071939  0.1666976558782594  0.1670141661580615
  0.8329665147328811  0.1668673315918667  0.0852790250125679
  0.6675816236524525  0.1669394147925871  0.9604969258060265
  0.9995682573432632  0.3335488559648923  0.0427530464698975
  0.8341490655358612  0.3330611777005075  0.9175622436218447
  0.6656904336411387  0.0001996170971310  0.3350730149544390
  0.8329477442656241  0.0001134865090791  0.2100099958476349
  0.8315915333107924  0.1667688101929841  0.2916294154892185
  0.0005944416160801  0.5003636086067331  0.6559283780452887
  0.8210894046915982  0.4993693956621215  0.5809561663113954
  0.6592082003761632  0.4997901049861753  0.4600092291871221
  0.0007591695170035  0.6635802816548235  0.5412215304623587
  0.8306596661654098  0.6670801814880036  0.4167620446110902
  0.6685098117344666  0.3337652670368385  0.8353785226000312
  0.8389465339644602  0.3334057957607399  0.7108339631135863
  0.8401576634935211  0.5003247388150811  0.7919165132007393
  0.9995274202960402  0.5002955632532675  0.1671154239502997
  0.8330186275586016  0.5002172203555588  0.0854291379696619
  0.6677843383262569  0.5002388341077477  0.9604698849430235
  0.9994597598681523  0.6669348276467204  0.0427880122155742
  0.8341110778630139  0.6673793453745915  0.9176170249654803
  0.6652589334776167  0.3335363553831172  0.3345070388933280
  0.8327166553790804  0.3335944899494478  0.2101040223251829
  0.8318872173067291  0.5002737397185513  0.2918872218599731
  0.9992174630826511  0.8362042595836456  0.6667428800071136
  0.8328231974788380  0.8317647778184920  0.5855083633367926
  0.6650082609646617  0.8337742058347146  0.4598545966974186
  0.9994438115473372  0.9997147816753653  0.5418297168013453
  0.8321337243225244  0.9993250317136742  0.4166899983586987
  0.6685028261604913  0.6669943150393465  0.8354558835719530
  0.8389441862904548  0.6670863586657845  0.7108099848203295
  0.8338258845162798  0.8340131111326201  0.7926730877121457
  0.9994734269792289  0.8334757327233575  0.1670407666972196
  0.8329841762095924  0.8336675232471791  0.0853057737842775
  0.6675826368390929  0.8336001405014741  0.9605226645898526
  0.9995225360840436  0.0002554259895362  0.0424806527249544
  0.8338439189818772  0.0002157338209869  0.9172375343889243
  0.6652223891126994  0.6674335943966696  0.3347324396547009
  0.8327830094399928  0.6667728944210225  0.2101107478789430
  0.8317183757162212  0.8334813707379354  0.2916659371509311
  0.3509301372508986  0.4934669503748097  0.5551336366510071
