Ti4 O8                                  
   1.00000000000000     
    11.5607959665632993    0.0000000000000000    0.0000000000000000
     0.0000000000000000   11.5607959665632993    0.0000000000000000
     0.0000000000000000    0.0000000000000000   19.2862138499999993
   Ti   O    Co
    70   142     2
Direct
  0.0001286543167112  0.1677643827127042  0.5640977633781930
  0.3360192860350750  0.3525002799181465  0.4290943662549225
  0.1666254958108624  0.0002119190927843  0.8149577464456570
  0.1642479727361845  0.1683130841742297  0.6914916189972189
  0.9997600900200538  0.1664026037437765  0.0634114101262924
  0.3330529634376518  0.3332181008083595  0.9394046100386149
  0.1641515834402654  0.0016661075099265  0.3111411661587127
  0.1668652501911225  0.1677570824312511  0.1873006324541038
  0.0034005215323916  0.4976936860006234  0.5655630030394860
  0.3329227757025066  0.6561374930753345  0.4360584307281741
  0.1662242707890371  0.3345681163641885  0.8154756537298482
  0.1678707579324907  0.5005149970777438  0.6905241799992794
  0.0002924886079470  0.5003266798410948  0.0631726348752650
  0.3327238370042380  0.6669076621457108  0.9391881490958411
  0.1621037803426830  0.3337106016855742  0.3127688576890932
  0.1666681087209199  0.4982089472636346  0.1875216540215021
  0.0000345990447030  0.8311977682031184  0.5629840564923043
  0.3324269565735563  0.9742858454948760  0.4320728353057603
  0.1663182049472027  0.6663035823239909  0.8147501789884046
  0.1632588806411874  0.8342370692634162  0.6905218860521671
  0.0000796074976179  0.8335813590537242  0.0636194905746947
  0.3332013111998222  0.9997692751983962  0.9391121682482293
  0.1651576163310082  0.6665852754108315  0.3117485311093802
  0.1667344822052641  0.8323194006244634  0.1879997734383423
  0.3334437225224463  0.1462519867777559  0.5701141739541882
  0.4999536408021328  0.0010513989248082  0.8151485507023679
  0.5010129970278427  0.1680166282600766  0.6920440735288267
  0.3331168494905938  0.1665260425198696  0.0632421047531224
  0.6671381534439149  0.3330916469943332  0.9396008269912173
  0.4988697069775299  0.0009507954136936  0.3106800800196297
  0.5000013065162889  0.1677245694192493  0.1869496616490380
  0.6665635543651547  0.6870799110511001  0.4326695778527849
  0.5001774728492094  0.3347705569780359  0.8161557705523990
  0.4955888764240299  0.4997613264725587  0.6914048842434255
  0.3328856396335595  0.5003276675148811  0.0631338503559107
  0.6669003716818480  0.6668679162739153  0.9394582807023255
  0.5041879920223522  0.3335204672450303  0.3114226714852322
  0.4998800706617672  0.4985606332375738  0.1866399296417072
  0.3337187968531268  0.8292534049208058  0.5675752833320971
  0.6662745030282622  0.0041937781729970  0.4352042018666751
  0.5000580391295344  0.6655860452911071  0.8158150358887539
  0.5011514898221705  0.8323343659954929  0.6921022008954409
  0.3332304686042917  0.8335594900116519  0.0635611612600897
  0.6667893622696468  0.9998330937412447  0.9391099815458617
  0.4990129740931053  0.6653228236001070  0.3107114510565978
  0.5000495284948556  0.8323188739572771  0.1875759439900690
  0.6671431633162044  0.1770114299385668  0.5667046437211880
  0.9966274850481653  0.3355492833264222  0.4372196224230862
  0.8332957600488768  0.0010501726634971  0.8146979495049465
  0.8348594439820971  0.1667644621165110  0.6910052038863270
  0.6672372744383352  0.1664748377956258  0.0634923608675066
  0.9996991255292542  0.3331103603796279  0.9395900063169691
  0.8367191955075555  0.9991002950355963  0.3122366315835805
  0.8336954728189596  0.1670185408186526  0.1879696371957067
  0.6638906559388502  0.4808004491269813  0.5736671947840151
  0.9999434633012285  0.6654257057800592  0.4386124871851607
  0.8333954981688620  0.3351359283572464  0.8152445690377945
  0.8377146579367931  0.4996016906206293  0.6899718427377621
  0.6669292240487934  0.5002072789818186  0.0633173634209356
  0.0002438418945445  0.6669807048793217  0.9393152454442060
  0.8319189821904516  0.3327742142480332  0.3122709283946037
  0.8337867359788405  0.4987893485245252  0.1873060502994974
  0.6675777751479188  0.8589768592169662  0.5706718258567562
  0.9999449806480101  0.0020430214496585  0.4397171632754180
  0.8332083104661621  0.6655705216269112  0.8154434957937511
  0.8358827910169566  0.8316374474811070  0.6916187189646976
  0.6668087584988314  0.8336391733703792  0.0635693209856001
  0.9999096577212612  0.9998412283120857  0.9390826837679640
  0.8357069708734741  0.6650210381944603  0.3112913627192029
  0.8333617042271868  0.8331299225342974  0.1877739867653929
  0.3330166318482810  0.1668924939074543  0.6706885471326061
  0.1662980594075023  0.1617818019658230  0.5884569510340185
  0.0003506055096025  0.1664974949920506  0.4604580097349569
  0.1651390895913636  0.3388527308615394  0.4126583888248021
  0.9999298159451158  0.0000300317155606  0.8360831815581591
  0.1659196036975459  0.9998263925150894  0.7117073657095290
  0.1660589555711027  0.1665369731159743  0.7939777772496939
  0.3331790886159851  0.1652152688557535  0.1663373794043963
  0.1666795832505557  0.1664388508349859  0.0844721237914996
  0.9999758634225344  0.1663853702579701  0.9604421121348707
  0.3332311831005086  0.3332140200701019  0.0423284660388603
  0.1665163400933878  0.3332400554593775  0.9183842282675130
  0.0003196025787204  0.9997416165076913  0.3347929091518580
  0.1659255237119837  0.9995428053323678  0.2096423905237259
  0.1659105997851995  0.1662610741604951  0.2906483518517078
  0.3318838849439061  0.5019749500369670  0.6776722346775159
  0.1638061885643012  0.4983104766108042  0.5884424619843287
  0.9974686410726861  0.5007308095568064  0.4609428055681519
  0.3347798950051413  0.6783474852515639  0.5391338954564944
  0.1663741128596712  0.6620740893374304  0.4159315365493370
  0.9998028518155024  0.3328377106984135  0.8366751787618725
  0.1648711506563885  0.3330573179713596  0.7123925908815849
  0.1648762136959618  0.5004147530852734  0.7949374982987507
  0.3330336925919326  0.5001702571388691  0.1660727229273675
  0.1665941434932492  0.5001997871396213  0.0840484432970925
  0.0000590559779496  0.5002034240156803  0.9603255353512665
  0.3332067794904034  0.6669527072853185  0.0422160469628707
  0.1665844660718534  0.6671852999520880  0.9181494240857191
  0.9994444973855749  0.3315284861885672  0.3325918670345729
  0.1660870228145868  0.3327737667257082  0.2073260803179551
  0.1641072632175167  0.4996702644741688  0.2897563260384288
  0.3335133082605211  0.8330096253100763  0.6667759670171449
  0.1657741512757269  0.8364507054011199  0.5860811616229142
  0.0031363183398696  0.8329029060094300  0.4609647793347449
  0.3353567386060661  0.9983113489369160  0.5340794316769006
  0.1684951820750129  0.0039242494856424  0.4161396395617771
  0.9999638465414762  0.6680783553337690  0.8364125248405898
  0.1653273507674129  0.6682262511973462  0.7119614674750636
  0.1665548301049355  0.8339819315398245  0.7930559659624237
  0.3332628340769119  0.8338792439828353  0.1666408828975534
  0.1666980007140495  0.8333053347300847  0.0849605583106907
  0.9998982780445189  0.8335358239241017  0.9604808980901751
  0.3332295494938364  0.9998606813209250  0.0421602409003157
  0.1665867137735617  0.9996996791454080  0.9179228129259513
  0.0004817572652271  0.6658711923160396  0.3344215461097022
  0.1668233498284835  0.6668567621743264  0.2091619261719160
  0.1659452635848240  0.8325859480122872  0.2915401935367825
  0.6676582240165700  0.1718939378297009  0.6691102186752786
  0.5002812529978513  0.1666394380951033  0.5892599923342843
  0.3334006776435032  0.2348504903784345  0.4938088023841019
  0.6655236907744140  0.3340855777418810  0.5376322825405992
  0.4996401878631076  0.3407459071579879  0.4113864056182521
  0.3332493219339696  0.0001453430853360  0.8361145713440692
  0.5001305422982725  0.0006031479288282  0.7118387151781960
  0.5006890815817471  0.1664234509929940  0.7948113496203675
  0.6669265486720519  0.1660338633480549  0.1664884889275555
  0.5000347577284572  0.1662255207388910  0.0844918701346771
  0.3331278807548728  0.1664485586261861  0.9603751408399006
  0.6669241319217463  0.3332011112487336  0.0424579914122560
  0.4999829458361162  0.3331265522639342  0.9187905245626169
  0.3329642870299807  0.9971067153982105  0.3318913587572254
  0.5007526533916504  0.9996802766749937  0.2093159608330382
  0.4992587468562348  0.1658748272537451  0.2905921563437843
  0.6675242903754395  0.4989486874672977  0.6722387451575003
  0.5002076527739092  0.4920945167002202  0.5914396651869893
  0.3344449276934540  0.4992389578357717  0.4650637897040397
  0.6664757237594543  0.5986323650473366  0.5091363552214432
  0.4997658939395464  0.6664852909152401  0.4134978602770190
  0.3330898138219638  0.3334365613150609  0.8365167906745157
  0.4994129378960892  0.3329651115006342  0.7135737998393097
  0.5008929162080165  0.5004789008300250  0.7962451990090216
  0.6668969743540245  0.4999799091681538  0.1662237441400052
  0.5000297995553211  0.5002825245777984  0.0839613273368514
  0.3330770248684942  0.5001860415189299  0.9602602684728438
  0.6668525825683034  0.6669415249286317  0.0423239818063763
  0.4999772740386632  0.6670981680864898  0.9182244873694998
  0.3325230768902045  0.3345508230026937  0.3304670597351134
  0.4992434536522694  0.3328746948627952  0.2065651153151080
  0.5005880356050341  0.5003918053122334  0.2892117378090830
  0.6670557960901959  0.8361647174018643  0.6708591653500733
  0.5028584019684033  0.8334713449044528  0.5868338852884563
  0.3313063316635194  0.8263860118602366  0.4522209775930861
  0.6687631072815563  0.0068246227439701  0.5505659622451446
  0.4971434702037953  0.9998545688847784  0.4159204235259182
  0.3330554925853733  0.6672446803147167  0.8362195897944318
  0.5007566463606068  0.6674690728240051  0.7121615750526828
  0.4992412581240018  0.8336803323560318  0.7934263933135384
  0.6667551332432993  0.8332622426234124  0.1665878881964034
  0.4999803688613511  0.8335697162800244  0.0846978628101382
  0.3331970437901077  0.8334688329622679  0.9604208940165861
  0.6667805737021482  0.9998974707541137  0.0422432563451736
  0.5000359406151773  0.9998392668106746  0.9180099051052366
  0.3323627704370367  0.6615522680315706  0.3336529272802835
  0.4993262854099854  0.6669392222721626  0.2079591646157155
  0.4999207356659880  0.8327986587538376  0.2909115387388397
  0.9994964513911384  0.1674400123373161  0.6683495332609226
  0.8336220906162026  0.1711979920321767  0.5868286033125614
  0.6652632896210164  0.1549829799289952  0.4636268569120574
  0.0025686338958977  0.3325227352540594  0.5418105144795931
  0.8363064250299104  0.3345857668866330  0.4143921831543267
  0.6667650651896224  0.9994956277531131  0.8360575260381111
  0.8340081541260460  0.0008041284186220  0.7111867357969288
  0.8331951402619779  0.1665267168941043  0.7935816340697741
  0.0000192677705684  0.1652954847891621  0.1663194159618371
  0.8334117350608921  0.1661646377490342  0.0845824126591310
  0.6668260137507716  0.1664283483356854  0.9604793911713685
  0.9999463091382452  0.3331927208963350  0.0423981929966928
  0.8334090585565832  0.3332285230860919  0.9187082128213149
  0.6664951500810403  0.0004497254517233  0.3359845599564508
  0.8334510455235744  0.9993857773735328  0.2096753433264453
  0.8346391085829836  0.1651303327853952  0.2907852167589837
  0.0004890107381854  0.5020235450361383  0.6701379480279215
  0.8348699510210977  0.4941312146323753  0.5900501350548382
  0.9997468833285268  0.6666779494502464  0.5423075767924459
  0.8336599981578772  0.6713994721607577  0.4143227244802574
  0.6670089491532707  0.3331739415183890  0.8366729039815937
  0.8359098440914963  0.3337300461073553  0.7130009367338772
  0.8339379581102335  0.5005910626098498  0.7954166273153049
  0.0001751482734349  0.5005230492298551  0.1660838165478111
  0.8334793118905210  0.5001620167556169  0.0843749989248224
  0.6667700774561780  0.5001778260936334  0.9603898586933184
  0.0000224839434253  0.6669897819674517  0.0422707955304986
  0.8333308850070651  0.6668820655536507  0.9182643976709457
  0.6680761245943216  0.3315613546848226  0.3254800291036517
  0.8349494091252296  0.3329541322319045  0.2078760505135762
  0.8350627499916570  0.5003291024184975  0.2903957428611648
  0.9996680074426507  0.8336457400273432  0.6679436712421847
  0.8315323894672630  0.8293366921091234  0.5865925798680962
  0.6646128578271302  0.8349819871134443  0.4686368093138924
  0.9968816832555802  0.0003186265659920  0.5417759144855410
  0.8342382338037666  0.9968254997772448  0.4166695239939457
  0.6668669694900728  0.6681437698577710  0.8363837685651276
  0.8340796031071775  0.6670728652690983  0.7120912935984762
  0.8341064829297764  0.8338242567289029  0.7930766974776020
  0.0000628924362829  0.8333914693136464  0.1666140706488193
  0.8333986732403744  0.8336811790455769  0.0847876510061241
  0.6668152814787547  0.8335100128722317  0.9605081173254462
  0.0000940437032213  0.9998498559167217  0.0422127792912832
  0.8333217865750271  0.0000944175061122  0.9177409529302594
  0.6669851527861965  0.6665253449893811  0.3320778770911090
  0.8339584182932072  0.6668311783292467  0.2087809980076401
  0.8340648338823797  0.8335545644757048  0.2910364363050348
  0.3330793067651214  0.5229042694792199  0.5752893805783756
  0.6669305835938459  0.3108877237823506  0.4278349969439645
 
  0.00000000E+00  0.00000000E+00  0.00000000E+00
  0.00000000E+00  0.00000000E+00  0.00000000E+00
  0.00000000E+00  0.00000000E+00  0.00000000E+00
  0.00000000E+00  0.00000000E+00  0.00000000E+00
  0.00000000E+00  0.00000000E+00  0.00000000E+00
  0.00000000E+00  0.00000000E+00  0.00000000E+00
  0.00000000E+00  0.00000000E+00  0.00000000E+00
  0.00000000E+00  0.00000000E+00  0.00000000E+00
  0.00000000E+00  0.00000000E+00  0.00000000E+00
  0.00000000E+00  0.00000000E+00  0.00000000E+00
  0.00000000E+00  0.00000000E+00  0.00000000E+00
  0.00000000E+00  0.00000000E+00  0.00000000E+00
  0.00000000E+00  0.00000000E+00  0.00000000E+00
  0.00000000E+00  0.00000000E+00  0.00000000E+00
  0.00000000E+00  0.00000000E+00  0.00000000E+00
  0.00000000E+00  0.00000000E+00  0.00000000E+00
  0.00000000E+00  0.00000000E+00  0.00000000E+00
  0.00000000E+00  0.00000000E+00  0.00000000E+00
  0.00000000E+00  0.00000000E+00  0.00000000E+00
  0.00000000E+00  0.00000000E+00  0.00000000E+00
  0.00000000E+00  0.00000000E+00  0.00000000E+00
  0.00000000E+00  0.00000000E+00  0.00000000E+00
  0.00000000E+00  0.00000000E+00  0.00000000E+00
  0.00000000E+00  0.00000000E+00  0.00000000E+00
  0.00000000E+00  0.00000000E+00  0.00000000E+00
  0.00000000E+00  0.00000000E+00  0.00000000E+00
  0.00000000E+00  0.00000000E+00  0.00000000E+00
  0.00000000E+00  0.00000000E+00  0.00000000E+00
  0.00000000E+00  0.00000000E+00  0.00000000E+00
  0.00000000E+00  0.00000000E+00  0.00000000E+00
  0.00000000E+00  0.00000000E+00  0.00000000E+00
  0.00000000E+00  0.00000000E+00  0.00000000E+00
  0.00000000E+00  0.00000000E+00  0.00000000E+00
  0.00000000E+00  0.00000000E+00  0.00000000E+00
  0.00000000E+00  0.00000000E+00  0.00000000E+00
  0.00000000E+00  0.00000000E+00  0.00000000E+00
  0.00000000E+00  0.00000000E+00  0.00000000E+00
  0.00000000E+00  0.00000000E+00  0.00000000E+00
  0.00000000E+00  0.00000000E+00  0.00000000E+00
  0.00000000E+00  0.00000000E+00  0.00000000E+00
  0.00000000E+00  0.00000000E+00  0.00000000E+00
  0.00000000E+00  0.00000000E+00  0.00000000E+00
  0.00000000E+00  0.00000000E+00  0.00000000E+00
  0.00000000E+00  0.00000000E+00  0.00000000E+00
  0.00000000E+00  0.00000000E+00  0.00000000E+00
  0.00000000E+00  0.00000000E+00  0.00000000E+00
  0.00000000E+00  0.00000000E+00  0.00000000E+00
  0.00000000E+00  0.00000000E+00  0.00000000E+00
  0.00000000E+00  0.00000000E+00  0.00000000E+00
  0.00000000E+00  0.00000000E+00  0.00000000E+00
  0.00000000E+00  0.00000000E+00  0.00000000E+00
  0.00000000E+00  0.00000000E+00  0.00000000E+00
  0.00000000E+00  0.00000000E+00  0.00000000E+00
  0.00000000E+00  0.00000000E+00  0.00000000E+00
  0.00000000E+00  0.00000000E+00  0.00000000E+00
  0.00000000E+00  0.00000000E+00  0.00000000E+00
  0.00000000E+00  0.00000000E+00  0.00000000E+00
  0.00000000E+00  0.00000000E+00  0.00000000E+00
  0.00000000E+00  0.00000000E+00  0.00000000E+00
  0.00000000E+00  0.00000000E+00  0.00000000E+00
  0.00000000E+00  0.00000000E+00  0.00000000E+00
  0.00000000E+00  0.00000000E+00  0.00000000E+00
  0.00000000E+00  0.00000000E+00  0.00000000E+00
  0.00000000E+00  0.00000000E+00  0.00000000E+00
  0.00000000E+00  0.00000000E+00  0.00000000E+00
  0.00000000E+00  0.00000000E+00  0.00000000E+00
  0.00000000E+00  0.00000000E+00  0.00000000E+00
  0.00000000E+00  0.00000000E+00  0.00000000E+00
  0.00000000E+00  0.00000000E+00  0.00000000E+00
  0.00000000E+00  0.00000000E+00  0.00000000E+00
  0.00000000E+00  0.00000000E+00  0.00000000E+00
  0.00000000E+00  0.00000000E+00  0.00000000E+00
  0.00000000E+00  0.00000000E+00  0.00000000E+00
  0.00000000E+00  0.00000000E+00  0.00000000E+00
  0.00000000E+00  0.00000000E+00  0.00000000E+00
  0.00000000E+00  0.00000000E+00  0.00000000E+00
  0.00000000E+00  0.00000000E+00  0.00000000E+00
  0.00000000E+00  0.00000000E+00  0.00000000E+00
  0.00000000E+00  0.00000000E+00  0.00000000E+00
  0.00000000E+00  0.00000000E+00  0.00000000E+00
  0.00000000E+00  0.00000000E+00  0.00000000E+00
  0.00000000E+00  0.00000000E+00  0.00000000E+00
  0.00000000E+00  0.00000000E+00  0.00000000E+00
  0.00000000E+00  0.00000000E+00  0.00000000E+00
  0.00000000E+00  0.00000000E+00  0.00000000E+00
  0.00000000E+00  0.00000000E+00  0.00000000E+00
  0.00000000E+00  0.00000000E+00  0.00000000E+00
  0.00000000E+00  0.00000000E+00  0.00000000E+00
  0.00000000E+00  0.00000000E+00  0.00000000E+00
  0.00000000E+00  0.00000000E+00  0.00000000E+00
  0.00000000E+00  0.00000000E+00  0.00000000E+00
  0.00000000E+00  0.00000000E+00  0.00000000E+00
  0.00000000E+00  0.00000000E+00  0.00000000E+00
  0.00000000E+00  0.00000000E+00  0.00000000E+00
  0.00000000E+00  0.00000000E+00  0.00000000E+00
  0.00000000E+00  0.00000000E+00  0.00000000E+00
  0.00000000E+00  0.00000000E+00  0.00000000E+00
  0.00000000E+00  0.00000000E+00  0.00000000E+00
  0.00000000E+00  0.00000000E+00  0.00000000E+00
  0.00000000E+00  0.00000000E+00  0.00000000E+00
  0.00000000E+00  0.00000000E+00  0.00000000E+00
  0.00000000E+00  0.00000000E+00  0.00000000E+00
  0.00000000E+00  0.00000000E+00  0.00000000E+00
  0.00000000E+00  0.00000000E+00  0.00000000E+00
  0.00000000E+00  0.00000000E+00  0.00000000E+00
  0.00000000E+00  0.00000000E+00  0.00000000E+00
  0.00000000E+00  0.00000000E+00  0.00000000E+00
  0.00000000E+00  0.00000000E+00  0.00000000E+00
  0.00000000E+00  0.00000000E+00  0.00000000E+00
  0.00000000E+00  0.00000000E+00  0.00000000E+00
  0.00000000E+00  0.00000000E+00  0.00000000E+00
  0.00000000E+00  0.00000000E+00  0.00000000E+00
  0.00000000E+00  0.00000000E+00  0.00000000E+00
  0.00000000E+00  0.00000000E+00  0.00000000E+00
  0.00000000E+00  0.00000000E+00  0.00000000E+00
  0.00000000E+00  0.00000000E+00  0.00000000E+00
  0.00000000E+00  0.00000000E+00  0.00000000E+00
  0.00000000E+00  0.00000000E+00  0.00000000E+00
  0.00000000E+00  0.00000000E+00  0.00000000E+00
  0.00000000E+00  0.00000000E+00  0.00000000E+00
  0.00000000E+00  0.00000000E+00  0.00000000E+00
  0.00000000E+00  0.00000000E+00  0.00000000E+00
  0.00000000E+00  0.00000000E+00  0.00000000E+00
  0.00000000E+00  0.00000000E+00  0.00000000E+00
  0.00000000E+00  0.00000000E+00  0.00000000E+00
  0.00000000E+00  0.00000000E+00  0.00000000E+00
  0.00000000E+00  0.00000000E+00  0.00000000E+00
  0.00000000E+00  0.00000000E+00  0.00000000E+00
  0.00000000E+00  0.00000000E+00  0.00000000E+00
  0.00000000E+00  0.00000000E+00  0.00000000E+00
  0.00000000E+00  0.00000000E+00  0.00000000E+00
  0.00000000E+00  0.00000000E+00  0.00000000E+00
  0.00000000E+00  0.00000000E+00  0.00000000E+00
  0.00000000E+00  0.00000000E+00  0.00000000E+00
  0.00000000E+00  0.00000000E+00  0.00000000E+00
  0.00000000E+00  0.00000000E+00  0.00000000E+00
  0.00000000E+00  0.00000000E+00  0.00000000E+00
  0.00000000E+00  0.00000000E+00  0.00000000E+00
  0.00000000E+00  0.00000000E+00  0.00000000E+00
  0.00000000E+00  0.00000000E+00  0.00000000E+00
  0.00000000E+00  0.00000000E+00  0.00000000E+00
  0.00000000E+00  0.00000000E+00  0.00000000E+00
  0.00000000E+00  0.00000000E+00  0.00000000E+00
  0.00000000E+00  0.00000000E+00  0.00000000E+00
  0.00000000E+00  0.00000000E+00  0.00000000E+00
  0.00000000E+00  0.00000000E+00  0.00000000E+00
  0.00000000E+00  0.00000000E+00  0.00000000E+00
  0.00000000E+00  0.00000000E+00  0.00000000E+00
  0.00000000E+00  0.00000000E+00  0.00000000E+00
  0.00000000E+00  0.00000000E+00  0.00000000E+00
  0.00000000E+00  0.00000000E+00  0.00000000E+00
  0.00000000E+00  0.00000000E+00  0.00000000E+00
  0.00000000E+00  0.00000000E+00  0.00000000E+00
  0.00000000E+00  0.00000000E+00  0.00000000E+00
  0.00000000E+00  0.00000000E+00  0.00000000E+00
  0.00000000E+00  0.00000000E+00  0.00000000E+00
  0.00000000E+00  0.00000000E+00  0.00000000E+00
  0.00000000E+00  0.00000000E+00  0.00000000E+00
  0.00000000E+00  0.00000000E+00  0.00000000E+00
  0.00000000E+00  0.00000000E+00  0.00000000E+00
  0.00000000E+00  0.00000000E+00  0.00000000E+00
  0.00000000E+00  0.00000000E+00  0.00000000E+00
  0.00000000E+00  0.00000000E+00  0.00000000E+00
  0.00000000E+00  0.00000000E+00  0.00000000E+00
  0.00000000E+00  0.00000000E+00  0.00000000E+00
  0.00000000E+00  0.00000000E+00  0.00000000E+00
  0.00000000E+00  0.00000000E+00  0.00000000E+00
  0.00000000E+00  0.00000000E+00  0.00000000E+00
  0.00000000E+00  0.00000000E+00  0.00000000E+00
  0.00000000E+00  0.00000000E+00  0.00000000E+00
  0.00000000E+00  0.00000000E+00  0.00000000E+00
  0.00000000E+00  0.00000000E+00  0.00000000E+00
  0.00000000E+00  0.00000000E+00  0.00000000E+00
  0.00000000E+00  0.00000000E+00  0.00000000E+00
  0.00000000E+00  0.00000000E+00  0.00000000E+00
  0.00000000E+00  0.00000000E+00  0.00000000E+00
  0.00000000E+00  0.00000000E+00  0.00000000E+00
  0.00000000E+00  0.00000000E+00  0.00000000E+00
  0.00000000E+00  0.00000000E+00  0.00000000E+00
  0.00000000E+00  0.00000000E+00  0.00000000E+00
  0.00000000E+00  0.00000000E+00  0.00000000E+00
  0.00000000E+00  0.00000000E+00  0.00000000E+00
  0.00000000E+00  0.00000000E+00  0.00000000E+00
  0.00000000E+00  0.00000000E+00  0.00000000E+00
  0.00000000E+00  0.00000000E+00  0.00000000E+00
  0.00000000E+00  0.00000000E+00  0.00000000E+00
  0.00000000E+00  0.00000000E+00  0.00000000E+00
  0.00000000E+00  0.00000000E+00  0.00000000E+00
  0.00000000E+00  0.00000000E+00  0.00000000E+00
  0.00000000E+00  0.00000000E+00  0.00000000E+00
  0.00000000E+00  0.00000000E+00  0.00000000E+00
  0.00000000E+00  0.00000000E+00  0.00000000E+00
  0.00000000E+00  0.00000000E+00  0.00000000E+00
  0.00000000E+00  0.00000000E+00  0.00000000E+00
  0.00000000E+00  0.00000000E+00  0.00000000E+00
  0.00000000E+00  0.00000000E+00  0.00000000E+00
  0.00000000E+00  0.00000000E+00  0.00000000E+00
  0.00000000E+00  0.00000000E+00  0.00000000E+00
  0.00000000E+00  0.00000000E+00  0.00000000E+00
  0.00000000E+00  0.00000000E+00  0.00000000E+00
  0.00000000E+00  0.00000000E+00  0.00000000E+00
  0.00000000E+00  0.00000000E+00  0.00000000E+00
  0.00000000E+00  0.00000000E+00  0.00000000E+00
  0.00000000E+00  0.00000000E+00  0.00000000E+00
  0.00000000E+00  0.00000000E+00  0.00000000E+00
  0.00000000E+00  0.00000000E+00  0.00000000E+00
  0.00000000E+00  0.00000000E+00  0.00000000E+00
  0.00000000E+00  0.00000000E+00  0.00000000E+00
  0.00000000E+00  0.00000000E+00  0.00000000E+00
  0.00000000E+00  0.00000000E+00  0.00000000E+00
  0.00000000E+00  0.00000000E+00  0.00000000E+00
  0.00000000E+00  0.00000000E+00  0.00000000E+00
  0.00000000E+00  0.00000000E+00  0.00000000E+00
  0.00000000E+00  0.00000000E+00  0.00000000E+00
