Ti4 O8                                  
   1.00000000000000     
    11.5607959665632993    0.0000000000000000    0.0000000000000000
     0.0000000000000000   11.5607959665632993    0.0000000000000000
     0.0000000000000000    0.0000000000000000   19.2862138499999993
   Ti   O    Co
    70   142     2
Direct
  0.9991204554952944  0.1654792292179010  0.5642407776799701
  0.3330318241162189  0.3354285103612042  0.4390802287778683
  0.1653852632621451  0.9999921429676490  0.8141003161942777
  0.1671800071938776  0.1668077119119431  0.6885703836606325
  0.9992908391919499  0.1662097417533133  0.0646182520761229
  0.3318546179046820  0.3333201172792926  0.9405881842016370
  0.1690018745896893  0.0000056920939500  0.3144807296821526
  0.1658458721175151  0.1661462871727863  0.1892970364564377
  0.9990863968129133  0.5000044611598540  0.5536202328455744
  0.3330321176623698  0.6645899009387222  0.4390797334786143
  0.1654013430494885  0.3315802958032066  0.8153129658848215
  0.2020617634349620  0.4999937999078696  0.6937050217437530
  0.9993123861136510  0.4999954377808393  0.0649349519248261
  0.3318546627801595  0.6666699499739082  0.9405881554255018
  0.1676182225747453  0.3329761735885839  0.3135519208619968
  0.1658994676147998  0.5000073532373932  0.1894896885551844
  0.9991209000360683  0.8345299633805041  0.5642401181438430
  0.3332038790630136  0.0000080182354125  0.4412077871458493
  0.1654014741799159  0.6684045614336895  0.8153130681355165
  0.1671803321565051  0.8331791978271355  0.6885702147731081
  0.9992911811474983  0.8337813278022708  0.0646182633258832
  0.3310384515673519  0.9999949076536723  0.9398606828403615
  0.1676188225591488  0.6670351210476611  0.3135515822590307
  0.1658460872126781  0.8338686161091147  0.1892971269250339
  0.3318804855297302  0.1708110347545002  0.5627327438798062
  0.6655888971911281  0.3354454941889031  0.4390774290956543
  0.4990987955981936  0.9999931352676157  0.8164751557955086
  0.4991132026561971  0.1650378789789784  0.6878732189135519
  0.3326871690614155  0.1663010799517082  0.0648539672319046
  0.6663681875915515  0.3333213017417762  0.9405821500015463
  0.4993449226485254  0.0000057876390045  0.3147277696925386
  0.4992643584505245  0.1661094779644117  0.1894914209219891
  0.6655890709433834  0.6645713703697851  0.4390769641581329
  0.4990745183853562  0.3232061575036838  0.8176152633785492
  0.4990866877955114  0.4999939055682532  0.7038975139060568
  0.3327609218199186  0.4999952266202570  0.0649790791851501
  0.6663682913723719  0.6666689416401468  0.9405820769502213
  0.4993412380984097  0.3330499650329699  0.3138591803636785
  0.4992726135183432  0.5000077703996553  0.1896578742629984
  0.3318804817324335  0.8291978903583086  0.5627326939839179
  0.6653705300494650  0.0000074737564262  0.4411983904787959
  0.4990744126176736  0.6767804615324522  0.8176150048772968
  0.4991142268752427  0.8349501251386968  0.6878728618027736
  0.3326874617265503  0.8336894355330529  0.0648539490034565
  0.6671402860551296  0.9999950866809968  0.9398566141381011
  0.4993414668066336  0.6669615444409374  0.3138588176075885
  0.4992646103025820  0.8339061349135122  0.1894914399649323
  0.6663864810610249  0.1708142015061540  0.5627279170907258
  0.9993072254535065  0.3268375280344173  0.4358506687257275
  0.8328315229780685  0.9999925339570552  0.8141000749373433
  0.8310620441118957  0.1668111024460615  0.6885761787716049
  0.6659081323944065  0.1662998178945756  0.0648541394056252
  0.9991056643744614  0.3335507820481283  0.9404173145003227
  0.8296871506028438  0.0000058528160451  0.3144734002561691
  0.8326936969193426  0.1661583515805560  0.1892975006505182
  0.9993075777359408  0.6731714997959912  0.4358503934351532
  0.8327678883059093  0.3315860891705569  0.8153141483052337
  0.7961064113637022  0.4999939490450487  0.6937065292480895
  0.6658617241532667  0.4999954194120804  0.0649780946146521
  0.9991058534838544  0.6664388903168117  0.9404172636998354
  0.8310645835073132  0.3329811955243542  0.3135535507954330
  0.8326557516198037  0.5000075617591406  0.1894858398342691
  0.6663869463049110  0.8291947411526195  0.5627279072670106
  0.9992795364826819  0.0000049621366784  0.4366303746911129
  0.8327678518636361  0.6683996537675725  0.8153142138556717
  0.8310636408961685  0.8331758982560586  0.6885759703475074
  0.6659084565895839  0.8336909602366376  0.0648541790046409
  0.9990892776404792  0.9999949564368933  0.9395929213833583
  0.8310648664539428  0.6670300896297832  0.3135531303215089
  0.8326939909473268  0.8338570416631725  0.1892974580191193
  0.3323594334378583  0.1668515029364812  0.6682051837578697
  0.1651742439149828  0.1663608759495432  0.5863063200484717
  0.9992962785873658  0.1647349073097715  0.4596097680858620
  0.3272870839418829  0.3320517800040861  0.5417640706058791
  0.1654303319733756  0.3303157414519333  0.4160827035726484
  0.9991309155144492  0.9999936106960448  0.8360062979187077
  0.1654815228925983  0.9999947300678755  0.7109314678355148
  0.1643390772809568  0.1670871945253083  0.7924995142361908
  0.3326027760097716  0.1663326308248045  0.1674622437496964
  0.1657989017621091  0.1663382909379436  0.0856762232189041
  0.9990974311363914  0.1667383830197693  0.9608837873838709
  0.3322839836022098  0.3333089885614129  0.0430975143920520
  0.1651874447296038  0.3333824089928612  0.9180333634247191
  0.9992647706117381  0.0000049821001156  0.3358945561885349
  0.1659672493865045  0.0000043268041594  0.2103245749416232
  0.1663747859063420  0.1663079364822835  0.2919282482221064
  0.3508987815371398  0.4999955049037936  0.6622537588738666
  0.9992774638507385  0.5000041085787430  0.4567739974033529
  0.3272866430821395  0.6679562159688146  0.5417630343322202
  0.1654305187290177  0.6696944616722149  0.4160821957009375
  0.9991185848768680  0.3359431703942306  0.8354638471127558
  0.1706235076821514  0.3359606027861517  0.7115752859787818
  0.1741624410967759  0.4999946970436397  0.7937664200939949
  0.3326797102464880  0.5000047009987156  0.1674921346749088
  0.1657797758615089  0.4999964026480228  0.0858402669738609
  0.9991121705214283  0.4999963855043319  0.9612515941475053
  0.3322842010121505  0.6666843513742577  0.0430973237168004
  0.1651874884510036  0.6666093071494572  0.9180334060150273
  0.9992756401191869  0.3323108868214817  0.3340038918860699
  0.1661741601745703  0.3331940371294309  0.2101520364693741
  0.1663643817845823  0.5000045726107416  0.2921051041201963
  0.3323593316796476  0.8331372929186358  0.6682046492094003
  0.1651741938393627  0.8336464593626047  0.5863060966818665
  0.9992962971418322  0.8352732984244611  0.4596098994297932
  0.3320462063728726  0.0000034386669796  0.5416098912171918
  0.1667994207196486  0.0000051662340042  0.4171318725592386
  0.9991186981789255  0.6640442599360625  0.8354639491277780
  0.1706238161538494  0.6640293502550136  0.7115753259837945
  0.1643387578672204  0.8329017660708757  0.7924993375446903
  0.3326028349423211  0.8336769393079564  0.1674621181035789
  0.1657988696089916  0.8336550101285169  0.0856760569233685
  0.9990974650663489  0.8332542924013353  0.9608837032670010
  0.3325802905512631  0.9999965950137124  0.0428780343438717
  0.1653711947068572  0.9999957322229207  0.9176741627960183
  0.9992755669351396  0.6676990803481786  0.3340034428177816
  0.1661742362465333  0.6668141427378842  0.2101518169387333
  0.1663751037439880  0.8337013085813609  0.2919279320394068
  0.6658837383012468  0.1668321957633765  0.6682004387408398
  0.4991196683830026  0.1690150683657592  0.5867209589892468
  0.3340200315467925  0.1670086311242116  0.4604847701595105
  0.6708529267003343  0.3320776118642854  0.5417580319192723
  0.4992731069174425  0.3350243245838769  0.4172363851064844
  0.3315448633796265  0.9999928750456206  0.8363740373501898
  0.4990939086677741  0.9999944508662395  0.7113989489338834
  0.4991097735722363  0.1640236962635058  0.7947334331749261
  0.6659121694703529  0.1663246033398238  0.1674612967773328
  0.4992485633595436  0.1665623691515634  0.0857547472335867
  0.3315529917599775  0.1663976664667430  0.9612995983917543
  0.6662439660170634  0.3333140125559808  0.0430931279349878
  0.4991182776970788  0.3317990728892042  0.9197564631793540
  0.3328692286981436  0.0000056803680692  0.3350192396143399
  0.4992531791451427  0.0000044493042921  0.2104506690001458
  0.4992827802571753  0.1665160592439250  0.2921696811290957
  0.6472500628256554  0.4999955195205033  0.6622814801291739
  0.3265124757034314  0.5000048338345167  0.4557523025487527
  0.6708538361754108  0.6679303724857988  0.5417569575552932
  0.4992733353720524  0.6649868571172348  0.4172359428672863
  0.3327580858499530  0.3299555095149884  0.8372809123546574
  0.4990640776736157  0.3312054565761713  0.7147720684959609
  0.4991022745207019  0.4999946162702926  0.7981919073054513
  0.6658381530214186  0.5000047819203743  0.1674956014007378
  0.4992522667857102  0.4999964934802037  0.0857139064781052
  0.3320736470014651  0.4999963597228287  0.9610907907832313
  0.6662438392914751  0.6666795032997825  0.0430929282474111
  0.4991183054770758  0.6681925555413599  0.9197560772052640
  0.3329361677821581  0.3328167644754103  0.3346759048957466
  0.4992415996001611  0.3331988520323961  0.2105158471477182
  0.4992707793280715  0.5000045834595355  0.2920017954800898
  0.6658838571154320  0.8331566417407927  0.6681999553586238
  0.4991197167053514  0.8309919101680734  0.5867205554753454
  0.3340200739287553  0.8329996273091353  0.4604839329534300
  0.6661920343292067  0.0000032349627972  0.5416170504307161
  0.4992744126090756  0.0000053928292445  0.4171824937146980
  0.3327580797867284  0.6700319594975070  0.8372804206336255
  0.4990641585244120  0.6687832191654621  0.7147711273281772
  0.4991099847366627  0.8359638860231726  0.7947328812444070
  0.6659123516516416  0.8336849364777166  0.1674611713130858
  0.4992486349546184  0.8334311633814835  0.0857546960802082
  0.3315532430215313  0.8335947833026509  0.9612994680110063
  0.6659487225188627  0.9999966710954880  0.0428782091350328
  0.4991359825887756  0.9999957516854963  0.9180543372051417
  0.3329362478931657  0.6671937614839223  0.3346751309228466
  0.4992416752236508  0.6668096461708544  0.2105156060266395
  0.4992828099144333  0.8334937042483475  0.2921694263521672
  0.9991192837769489  0.1699511236024307  0.6675777191567178
  0.8330698133786640  0.1663892201762636  0.5863043041091771
  0.6645740523056247  0.1669957419263284  0.4604870295825165
  0.9990691355484387  0.3317181604133594  0.5393453968961879
  0.8331154219544175  0.3303071728475473  0.4160729395442146
  0.6667119813784268  0.9999929998014281  0.8363672822729313
  0.8327716034041970  0.9999946197635978  0.7109288405314516
  0.8339226651271758  0.1670900492889373  0.7925004150986013
  0.9992587696418767  0.1665192412106009  0.1673144442649956
  0.8327004317448896  0.1663576354419405  0.0856785286085469
  0.6667207158531383  0.1663951017253709  0.9613004068121001
  0.9992497890043737  0.3333303809822397  0.0426102197840734
  0.8330622074071101  0.3333778566442689  0.9180371254888726
  0.6656848712364507  0.0000054851987628  0.3350161754268441
  0.8325876836657571  0.0000044853044230  0.2103253771601885
  0.8322081585349252  0.1663122183702370  0.2919281371236551
  0.1371474765088578  0.5000006041633966  0.6036924199860607
  0.8609360684184679  0.5000008093040051  0.6036677176753926
  0.6720531399002354  0.5000047684290863  0.4557062224233093
  0.9990694665269544  0.6682886084416708  0.5393450003429976
  0.8331154120311624  0.6697029736011615  0.4160724108769571
  0.6654837943448300  0.3299414223912578  0.8372840395196732
  0.8275581105820606  0.3359614308517322  0.7115757757925891
  0.8240536018321194  0.4999947678797483  0.7937691053795746
  0.9992630358668890  0.5000046475370254  0.1675909919645804
  0.8327214542400299  0.4999965050243773  0.0858432259055348
  0.6661795605793799  0.4999965008132747  0.9610851081222052
  0.9992499427973982  0.6666628711251477  0.0426102545907483
  0.8330623222074109  0.6666139998695826  0.9180371825551177
  0.6656117562757586  0.3328290671229865  0.3346586087518375
  0.8323971040044853  0.3331914433728613  0.2101476774510331
  0.8322289820181297  0.5000044933837415  0.2921019843731187
  0.9991194847501248  0.8300375635882986  0.6675775401422896
  0.8330702337752953  0.8336181336146282  0.5863039950102120
  0.6645743372853090  0.8330126258094523  0.4604862846784599
  0.9990889039015869  0.0000034772215258  0.5426099536573616
  0.8317448576649014  0.0000052447958225  0.4171308121112460
  0.6654839204124059  0.6700463527487912  0.8372836227993403
  0.8275581202456976  0.6640288391612756  0.7115759364953789
  0.8339233450031074  0.8328991223312414  0.7925002694472809
  0.9992588060718575  0.8334902562790489  0.1673143189238218
  0.8327006454106112  0.8336357846967246  0.0856784625685023
  0.6667207712490111  0.8335974726549011  0.9613003062928271
  0.9992424447161596  0.9999967353393728  0.0425489866607194
  0.8328954328528155  0.9999958645737905  0.9176641807964856
  0.6656120671284995  0.6671815409601010  0.3346579378313095
  0.8323972441636300  0.6668166929338000  0.2101474285869500
  0.8322080166720411  0.8336971914949700  0.2919278932892411
  0.2951466164909817  0.5000043513630814  0.5567442395783573
  0.7030917969675059  0.5000040833492889  0.5567756591853481
 
  0.00000000E+00  0.00000000E+00  0.00000000E+00
  0.00000000E+00  0.00000000E+00  0.00000000E+00
  0.00000000E+00  0.00000000E+00  0.00000000E+00
  0.00000000E+00  0.00000000E+00  0.00000000E+00
  0.00000000E+00  0.00000000E+00  0.00000000E+00
  0.00000000E+00  0.00000000E+00  0.00000000E+00
  0.00000000E+00  0.00000000E+00  0.00000000E+00
  0.00000000E+00  0.00000000E+00  0.00000000E+00
  0.00000000E+00  0.00000000E+00  0.00000000E+00
  0.00000000E+00  0.00000000E+00  0.00000000E+00
  0.00000000E+00  0.00000000E+00  0.00000000E+00
  0.00000000E+00  0.00000000E+00  0.00000000E+00
  0.00000000E+00  0.00000000E+00  0.00000000E+00
  0.00000000E+00  0.00000000E+00  0.00000000E+00
  0.00000000E+00  0.00000000E+00  0.00000000E+00
  0.00000000E+00  0.00000000E+00  0.00000000E+00
  0.00000000E+00  0.00000000E+00  0.00000000E+00
  0.00000000E+00  0.00000000E+00  0.00000000E+00
  0.00000000E+00  0.00000000E+00  0.00000000E+00
  0.00000000E+00  0.00000000E+00  0.00000000E+00
  0.00000000E+00  0.00000000E+00  0.00000000E+00
  0.00000000E+00  0.00000000E+00  0.00000000E+00
  0.00000000E+00  0.00000000E+00  0.00000000E+00
  0.00000000E+00  0.00000000E+00  0.00000000E+00
  0.00000000E+00  0.00000000E+00  0.00000000E+00
  0.00000000E+00  0.00000000E+00  0.00000000E+00
  0.00000000E+00  0.00000000E+00  0.00000000E+00
  0.00000000E+00  0.00000000E+00  0.00000000E+00
  0.00000000E+00  0.00000000E+00  0.00000000E+00
  0.00000000E+00  0.00000000E+00  0.00000000E+00
  0.00000000E+00  0.00000000E+00  0.00000000E+00
  0.00000000E+00  0.00000000E+00  0.00000000E+00
  0.00000000E+00  0.00000000E+00  0.00000000E+00
  0.00000000E+00  0.00000000E+00  0.00000000E+00
  0.00000000E+00  0.00000000E+00  0.00000000E+00
  0.00000000E+00  0.00000000E+00  0.00000000E+00
  0.00000000E+00  0.00000000E+00  0.00000000E+00
  0.00000000E+00  0.00000000E+00  0.00000000E+00
  0.00000000E+00  0.00000000E+00  0.00000000E+00
  0.00000000E+00  0.00000000E+00  0.00000000E+00
  0.00000000E+00  0.00000000E+00  0.00000000E+00
  0.00000000E+00  0.00000000E+00  0.00000000E+00
  0.00000000E+00  0.00000000E+00  0.00000000E+00
  0.00000000E+00  0.00000000E+00  0.00000000E+00
  0.00000000E+00  0.00000000E+00  0.00000000E+00
  0.00000000E+00  0.00000000E+00  0.00000000E+00
  0.00000000E+00  0.00000000E+00  0.00000000E+00
  0.00000000E+00  0.00000000E+00  0.00000000E+00
  0.00000000E+00  0.00000000E+00  0.00000000E+00
  0.00000000E+00  0.00000000E+00  0.00000000E+00
  0.00000000E+00  0.00000000E+00  0.00000000E+00
  0.00000000E+00  0.00000000E+00  0.00000000E+00
  0.00000000E+00  0.00000000E+00  0.00000000E+00
  0.00000000E+00  0.00000000E+00  0.00000000E+00
  0.00000000E+00  0.00000000E+00  0.00000000E+00
  0.00000000E+00  0.00000000E+00  0.00000000E+00
  0.00000000E+00  0.00000000E+00  0.00000000E+00
  0.00000000E+00  0.00000000E+00  0.00000000E+00
  0.00000000E+00  0.00000000E+00  0.00000000E+00
  0.00000000E+00  0.00000000E+00  0.00000000E+00
  0.00000000E+00  0.00000000E+00  0.00000000E+00
  0.00000000E+00  0.00000000E+00  0.00000000E+00
  0.00000000E+00  0.00000000E+00  0.00000000E+00
  0.00000000E+00  0.00000000E+00  0.00000000E+00
  0.00000000E+00  0.00000000E+00  0.00000000E+00
  0.00000000E+00  0.00000000E+00  0.00000000E+00
  0.00000000E+00  0.00000000E+00  0.00000000E+00
  0.00000000E+00  0.00000000E+00  0.00000000E+00
  0.00000000E+00  0.00000000E+00  0.00000000E+00
  0.00000000E+00  0.00000000E+00  0.00000000E+00
  0.00000000E+00  0.00000000E+00  0.00000000E+00
  0.00000000E+00  0.00000000E+00  0.00000000E+00
  0.00000000E+00  0.00000000E+00  0.00000000E+00
  0.00000000E+00  0.00000000E+00  0.00000000E+00
  0.00000000E+00  0.00000000E+00  0.00000000E+00
  0.00000000E+00  0.00000000E+00  0.00000000E+00
  0.00000000E+00  0.00000000E+00  0.00000000E+00
  0.00000000E+00  0.00000000E+00  0.00000000E+00
  0.00000000E+00  0.00000000E+00  0.00000000E+00
  0.00000000E+00  0.00000000E+00  0.00000000E+00
  0.00000000E+00  0.00000000E+00  0.00000000E+00
  0.00000000E+00  0.00000000E+00  0.00000000E+00
  0.00000000E+00  0.00000000E+00  0.00000000E+00
  0.00000000E+00  0.00000000E+00  0.00000000E+00
  0.00000000E+00  0.00000000E+00  0.00000000E+00
  0.00000000E+00  0.00000000E+00  0.00000000E+00
  0.00000000E+00  0.00000000E+00  0.00000000E+00
  0.00000000E+00  0.00000000E+00  0.00000000E+00
  0.00000000E+00  0.00000000E+00  0.00000000E+00
  0.00000000E+00  0.00000000E+00  0.00000000E+00
  0.00000000E+00  0.00000000E+00  0.00000000E+00
  0.00000000E+00  0.00000000E+00  0.00000000E+00
  0.00000000E+00  0.00000000E+00  0.00000000E+00
  0.00000000E+00  0.00000000E+00  0.00000000E+00
  0.00000000E+00  0.00000000E+00  0.00000000E+00
  0.00000000E+00  0.00000000E+00  0.00000000E+00
  0.00000000E+00  0.00000000E+00  0.00000000E+00
  0.00000000E+00  0.00000000E+00  0.00000000E+00
  0.00000000E+00  0.00000000E+00  0.00000000E+00
  0.00000000E+00  0.00000000E+00  0.00000000E+00
  0.00000000E+00  0.00000000E+00  0.00000000E+00
  0.00000000E+00  0.00000000E+00  0.00000000E+00
  0.00000000E+00  0.00000000E+00  0.00000000E+00
  0.00000000E+00  0.00000000E+00  0.00000000E+00
  0.00000000E+00  0.00000000E+00  0.00000000E+00
  0.00000000E+00  0.00000000E+00  0.00000000E+00
  0.00000000E+00  0.00000000E+00  0.00000000E+00
  0.00000000E+00  0.00000000E+00  0.00000000E+00
  0.00000000E+00  0.00000000E+00  0.00000000E+00
  0.00000000E+00  0.00000000E+00  0.00000000E+00
  0.00000000E+00  0.00000000E+00  0.00000000E+00
  0.00000000E+00  0.00000000E+00  0.00000000E+00
  0.00000000E+00  0.00000000E+00  0.00000000E+00
  0.00000000E+00  0.00000000E+00  0.00000000E+00
  0.00000000E+00  0.00000000E+00  0.00000000E+00
  0.00000000E+00  0.00000000E+00  0.00000000E+00
  0.00000000E+00  0.00000000E+00  0.00000000E+00
  0.00000000E+00  0.00000000E+00  0.00000000E+00
  0.00000000E+00  0.00000000E+00  0.00000000E+00
  0.00000000E+00  0.00000000E+00  0.00000000E+00
  0.00000000E+00  0.00000000E+00  0.00000000E+00
  0.00000000E+00  0.00000000E+00  0.00000000E+00
  0.00000000E+00  0.00000000E+00  0.00000000E+00
  0.00000000E+00  0.00000000E+00  0.00000000E+00
  0.00000000E+00  0.00000000E+00  0.00000000E+00
  0.00000000E+00  0.00000000E+00  0.00000000E+00
  0.00000000E+00  0.00000000E+00  0.00000000E+00
  0.00000000E+00  0.00000000E+00  0.00000000E+00
  0.00000000E+00  0.00000000E+00  0.00000000E+00
  0.00000000E+00  0.00000000E+00  0.00000000E+00
  0.00000000E+00  0.00000000E+00  0.00000000E+00
  0.00000000E+00  0.00000000E+00  0.00000000E+00
  0.00000000E+00  0.00000000E+00  0.00000000E+00
  0.00000000E+00  0.00000000E+00  0.00000000E+00
  0.00000000E+00  0.00000000E+00  0.00000000E+00
  0.00000000E+00  0.00000000E+00  0.00000000E+00
  0.00000000E+00  0.00000000E+00  0.00000000E+00
  0.00000000E+00  0.00000000E+00  0.00000000E+00
  0.00000000E+00  0.00000000E+00  0.00000000E+00
  0.00000000E+00  0.00000000E+00  0.00000000E+00
  0.00000000E+00  0.00000000E+00  0.00000000E+00
  0.00000000E+00  0.00000000E+00  0.00000000E+00
  0.00000000E+00  0.00000000E+00  0.00000000E+00
  0.00000000E+00  0.00000000E+00  0.00000000E+00
  0.00000000E+00  0.00000000E+00  0.00000000E+00
  0.00000000E+00  0.00000000E+00  0.00000000E+00
  0.00000000E+00  0.00000000E+00  0.00000000E+00
  0.00000000E+00  0.00000000E+00  0.00000000E+00
  0.00000000E+00  0.00000000E+00  0.00000000E+00
  0.00000000E+00  0.00000000E+00  0.00000000E+00
  0.00000000E+00  0.00000000E+00  0.00000000E+00
  0.00000000E+00  0.00000000E+00  0.00000000E+00
  0.00000000E+00  0.00000000E+00  0.00000000E+00
  0.00000000E+00  0.00000000E+00  0.00000000E+00
  0.00000000E+00  0.00000000E+00  0.00000000E+00
  0.00000000E+00  0.00000000E+00  0.00000000E+00
  0.00000000E+00  0.00000000E+00  0.00000000E+00
  0.00000000E+00  0.00000000E+00  0.00000000E+00
  0.00000000E+00  0.00000000E+00  0.00000000E+00
  0.00000000E+00  0.00000000E+00  0.00000000E+00
  0.00000000E+00  0.00000000E+00  0.00000000E+00
  0.00000000E+00  0.00000000E+00  0.00000000E+00
  0.00000000E+00  0.00000000E+00  0.00000000E+00
  0.00000000E+00  0.00000000E+00  0.00000000E+00
  0.00000000E+00  0.00000000E+00  0.00000000E+00
  0.00000000E+00  0.00000000E+00  0.00000000E+00
  0.00000000E+00  0.00000000E+00  0.00000000E+00
  0.00000000E+00  0.00000000E+00  0.00000000E+00
  0.00000000E+00  0.00000000E+00  0.00000000E+00
  0.00000000E+00  0.00000000E+00  0.00000000E+00
  0.00000000E+00  0.00000000E+00  0.00000000E+00
  0.00000000E+00  0.00000000E+00  0.00000000E+00
  0.00000000E+00  0.00000000E+00  0.00000000E+00
  0.00000000E+00  0.00000000E+00  0.00000000E+00
  0.00000000E+00  0.00000000E+00  0.00000000E+00
  0.00000000E+00  0.00000000E+00  0.00000000E+00
  0.00000000E+00  0.00000000E+00  0.00000000E+00
  0.00000000E+00  0.00000000E+00  0.00000000E+00
  0.00000000E+00  0.00000000E+00  0.00000000E+00
  0.00000000E+00  0.00000000E+00  0.00000000E+00
  0.00000000E+00  0.00000000E+00  0.00000000E+00
  0.00000000E+00  0.00000000E+00  0.00000000E+00
  0.00000000E+00  0.00000000E+00  0.00000000E+00
  0.00000000E+00  0.00000000E+00  0.00000000E+00
  0.00000000E+00  0.00000000E+00  0.00000000E+00
  0.00000000E+00  0.00000000E+00  0.00000000E+00
  0.00000000E+00  0.00000000E+00  0.00000000E+00
  0.00000000E+00  0.00000000E+00  0.00000000E+00
  0.00000000E+00  0.00000000E+00  0.00000000E+00
  0.00000000E+00  0.00000000E+00  0.00000000E+00
  0.00000000E+00  0.00000000E+00  0.00000000E+00
  0.00000000E+00  0.00000000E+00  0.00000000E+00
  0.00000000E+00  0.00000000E+00  0.00000000E+00
  0.00000000E+00  0.00000000E+00  0.00000000E+00
  0.00000000E+00  0.00000000E+00  0.00000000E+00
  0.00000000E+00  0.00000000E+00  0.00000000E+00
  0.00000000E+00  0.00000000E+00  0.00000000E+00
  0.00000000E+00  0.00000000E+00  0.00000000E+00
  0.00000000E+00  0.00000000E+00  0.00000000E+00
  0.00000000E+00  0.00000000E+00  0.00000000E+00
  0.00000000E+00  0.00000000E+00  0.00000000E+00
  0.00000000E+00  0.00000000E+00  0.00000000E+00
  0.00000000E+00  0.00000000E+00  0.00000000E+00
  0.00000000E+00  0.00000000E+00  0.00000000E+00
  0.00000000E+00  0.00000000E+00  0.00000000E+00
  0.00000000E+00  0.00000000E+00  0.00000000E+00
  0.00000000E+00  0.00000000E+00  0.00000000E+00
  0.00000000E+00  0.00000000E+00  0.00000000E+00
  0.00000000E+00  0.00000000E+00  0.00000000E+00
  0.00000000E+00  0.00000000E+00  0.00000000E+00
  0.00000000E+00  0.00000000E+00  0.00000000E+00
  0.00000000E+00  0.00000000E+00  0.00000000E+00
  0.00000000E+00  0.00000000E+00  0.00000000E+00
  0.00000000E+00  0.00000000E+00  0.00000000E+00
