Ti4 O8                                  
   1.00000000000000     
    11.5607959665632993    0.0000000000000000    0.0000000000000000
     0.0000000000000000   11.5607959665632993    0.0000000000000000
     0.0000000000000000    0.0000000000000000   19.2862138499999993
   Ti   O    Co
    70   142     2
Direct
  0.9995237686734839  0.1681822181523529  0.5628814609228669
  0.3333349525610103  0.3015280521951524  0.4312976084411346
  0.1667112469627128  0.0019886657327248  0.8145217940486802
  0.1620197796550258  0.1676291077888052  0.6905663158426876
  0.9997304633982083  0.1664835190709084  0.0638970144997089
  0.3333013227808834  0.3331371221675425  0.9390177280723577
  0.1620303526618656  0.9989749252097582  0.3122932570671537
  0.1667254735668067  0.1646920332862791  0.1883015685211618
  0.0039692279651220  0.5013540570838231  0.5656902636802172
  0.1661573549771305  0.3360838124346941  0.8151051657032582
  0.1668138870298606  0.5005840323152881  0.6905359634004427
  0.9991423082345108  0.4996860299621773  0.0634175248892319
  0.3333034112912614  0.6666791346182279  0.9392124739906222
  0.1646625623959252  0.3342058028414030  0.3116881586104157
  0.1661527306683936  0.4994565811769220  0.1873721585804162
  0.0002276184062708  0.8311481372694800  0.5638931843659165
  0.3332869124841338  0.9888551491860653  0.4335697226455437
  0.1661014366230305  0.6671704034451480  0.8155265129524381
  0.1646484738448351  0.8323684122695028  0.6912179496699835
  0.9993742286710585  0.8336928819130094  0.0636358089923306
  0.3333267224323464  0.9998618843126010  0.9390714249957455
  0.1668535137040692  0.6660622167828265  0.3123541177079616
  0.1662195395902728  0.8305864604945441  0.1877390527438862
  0.3334005872367598  0.1778813077402290  0.5693067922971906
  0.6665377287612486  0.3356523907579216  0.4389353374103351
  0.4999183319202984  0.0019354704646233  0.8145065557872471
  0.5046195070088473  0.1676097925228817  0.6905701389196253
  0.3333140803680763  0.1666612048630540  0.0637130994510429
  0.6672707293386466  0.3328310783443484  0.9391484091760205
  0.5046487126229309  0.9989473216978411  0.3123092854131428
  0.4999247254426749  0.1646587455569772  0.1883077373788709
  0.6626164638533467  0.6654229942602967  0.4371917267137917
  0.5004624059411142  0.3360492059609612  0.8150979598422197
  0.4999434213490801  0.5005534180432605  0.6905292256190876
  0.3333369316142907  0.4998017155745629  0.0636093792188319
  0.6675226704001815  0.6668007113708185  0.9394160586717319
  0.5020306479292032  0.3341638497620423  0.3116922913218261
  0.5005742094215222  0.4994139372814601  0.1873756634828467
  0.3333358183010802  0.8652049254719572  0.5716245982336545
  0.6672129840880459  0.9986016496807366  0.4399555136400366
  0.5005604777976771  0.6671445580341384  0.8155113025654614
  0.5020722369940245  0.8323393045135177  0.6911946543599541
  0.3333134132152153  0.8333807211960362  0.0637617903311209
  0.6668976125356707  0.0000334195365284  0.9388801698707283
  0.4999956022136303  0.6660268603056920  0.3123256177401572
  0.5004884470199329  0.8305880543033339  0.1877396532368110
  0.6672689414030586  0.1681701655929118  0.5628754189645022
  0.0001482880646932  0.3356860227491865  0.4389375018325268
  0.8333337381235282  0.0007483968061166  0.8139656595922844
  0.8333158976846278  0.1681011134000272  0.6897855379775493
  0.6668699928447452  0.1664847860683309  0.0638920710265012
  0.9993308136610537  0.3328397448076998  0.9391705926188365
  0.8333556033948213  0.9984486799257937  0.3130069466423251
  0.8333194672409761  0.1659002406681225  0.1888186281486384
  0.6626089643709392  0.5013458132733106  0.5656803988974417
  0.0039944884934187  0.6654544404899454  0.4371926916689759
  0.8333331829772845  0.3358228685567042  0.8139289079804612
  0.8333633888284240  0.5013680811855394  0.6874416971481239
  0.6674891284434068  0.4996651933639384  0.0634016410698806
  0.9990636721221975  0.6667931652491461  0.9394239533300919
  0.8333465335052068  0.3320621786898386  0.3133598461513998
  0.8333515030550913  0.5003189750301900  0.1889091918841999
  0.6665028541631202  0.8311573160423862  0.5638946640891263
  0.9994004580452511  0.9986474971152219  0.4399654036779879
  0.8333300082672253  0.6663829858542343  0.8138740219790392
  0.8333665632627216  0.8345493484757540  0.6894104357649127
  0.6672261986443502  0.8336833197805618  0.0636169019792732
  0.9997263871266497  0.0000187522775903  0.9388951570413369
  0.8334127012856314  0.6652519055515356  0.3154117053016918
  0.8333352883140179  0.8308105987477745  0.1888268004520128
  0.3333406108454469  0.1744541593341111  0.6675416459209131
  0.1661840578474099  0.1726162440230539  0.5862760083590146
  0.0015430045529428  0.1668025973821017  0.4607012509575554
  0.3333340980135659  0.3318527139078071  0.5294845820937937
  0.1694168472219104  0.3340152389903182  0.4158213697289526
  0.9998534556788954  0.0014548893814919  0.8357581967142664
  0.1659235753287547  0.0024648625841053  0.7109109048998974
  0.1663646196922244  0.1679940064217860  0.7929858730020527
  0.3333279595472334  0.1651157632396263  0.1670249891020035
  0.1666275365030856  0.1662318097028646  0.0853304818967828
  0.9996529620577590  0.1664837168073987  0.9606205978367868
  0.3333586770136492  0.3330940390711206  0.0422976805404147
  0.1665076599971655  0.3330791040505758  0.9179437457997608
  0.9993504120363212  0.9993984600172610  0.3352562970535047
  0.1663822066229486  0.9986339201778023  0.2098647827646190
  0.1658623207153269  0.1641808934354998  0.2919269208560848
  0.3333349656669498  0.5013029897808181  0.6823039119496599
  0.1676734068742576  0.5009579112756057  0.5888736844742297
  0.0028501889302959  0.5000125899518721  0.4603019994454129
  0.1676996162470559  0.6658784541961609  0.4139987569835100
  0.9994280195623872  0.3333847973999653  0.8361891532381662
  0.1633184492009221  0.3347461007382151  0.7121409668835668
  0.1633189662462655  0.5016183483689289  0.7952429492255604
  0.3333432871032542  0.4987773197175329  0.1667223591043552
  0.1664734843753024  0.4994447273190232  0.0848237884970615
  0.9997204859426176  0.4998687490279181  0.9605126055657109
  0.3333601136136650  0.6665765672968007  0.0423138057603367
  0.1664529670898318  0.6670567549231876  0.9180368669989605
  0.9999013764168296  0.3323705651034174  0.3356302913493039
  0.1659292360943496  0.3314442589206763  0.2095978359978830
  0.1650511260702530  0.4980204272179520  0.2908507677485304
  0.3333233251592489  0.8381973854161444  0.6714042020956370
  0.1693753113537397  0.8327426930054145  0.5870482670202222
  0.0005082179132998  0.8325606215959667  0.4608934646530258
  0.3333338013032900  0.0133940579088971  0.5478694124884171
  0.1662002825616895  0.9941233477068678  0.4165931790726631
  0.9993716681230467  0.6689046059227053  0.8362648542188751
  0.1649697968400332  0.6685967187850679  0.7120412174011861
  0.1658802782760063  0.8351876325341578  0.7932659875230712
  0.3333342365492058  0.8315080071306937  0.1668696799734022
  0.1665290499693199  0.8335111226389174  0.0848858154003267
  0.9995860996531647  0.8336267210774011  0.9604943234126893
  0.3333603446846993  0.9999311208730219  0.0421900528135808
  0.1666108976081304  0.0003081775100071  0.9174829760316570
  0.9989834217156925  0.6649895665921406  0.3347306800271710
  0.1633413036253231  0.6650173185546819  0.2076490600583583
  0.1633460898364731  0.8319251194381110  0.2907260022390190
  0.6673182572046770  0.1671830799334089  0.6675987383807538
  0.5004749735618503  0.1725980792578881  0.5862684575457422
  0.3333650384525413  0.1533162657035163  0.4551023733279820
  0.6661615245116224  0.3341854660577113  0.5419681702475856
  0.4972696487151111  0.3339908600323014  0.4158202466808660
  0.3333195809842309  0.0015433059541436  0.8357834909789830
  0.5007570572775251  0.0024458539320094  0.7109053312839819
  0.5002497749570267  0.1679870856355947  0.7929725336997109
  0.6667810015776254  0.1651664218842441  0.1670466868989422
  0.5000214898169517  0.1662053756896853  0.0853352880360276
  0.3333258609052336  0.1666356240884710  0.9605862918663206
  0.6669975316103915  0.3329230463690678  0.0423107372194380
  0.5001407683925336  0.3330847878500478  0.9179216014132621
  0.3333505922388866  0.9922142243721694  0.3353372677996305
  0.5002409131922292  0.9986336898446808  0.2098660783381732
  0.5008238655536914  0.1641735030531848  0.2919327564430958
  0.6676714456032116  0.5016774319763471  0.6681188527918636
  0.4989308051147958  0.5009146967572633  0.5888579295539955
  0.6638008895787237  0.6667202386184670  0.5425490461767950
  0.4989677023453041  0.6658438850842288  0.4139981686679874
  0.3333229163009932  0.3351291783576755  0.8359489372849893
  0.5033743145501717  0.3347363776069372  0.7121272200964199
  0.5033437008711985  0.5016106883906204  0.7952231153831235
  0.6672473464538626  0.4976555391982274  0.1665779564003600
  0.5001908596660485  0.4994453451859471  0.0848223436491722
  0.3333490429249721  0.4999652576152727  0.9605047397504620
  0.6668635883752074  0.6666778011480474  0.0423007626420784
  0.5001959416264157  0.6670413093527330  0.9180131950141828
  0.3333514604138301  0.3282852203994082  0.3314825455137225
  0.5007477199203052  0.3314314416393955  0.2095970460824716
  0.5016802054125762  0.4980047761623538  0.2908483951472718
  0.6667610130017749  0.8343353442475205  0.6672291511515738
  0.4972571202919767  0.8327269467638345  0.5870512514304806
  0.3333629548237127  0.8349613797616442  0.4734141891590014
  0.6651562902668076  0.9999269987357877  0.5421421354651059
  0.5005016607304071  0.9941184180438185  0.4165907355483824
  0.3333147324076222  0.6677919121505411  0.8361202221388879
  0.5017224310164252  0.6685876513532492  0.7120252117633683
  0.5007361048344947  0.8351755943257757  0.7932607338939945
  0.6671991770842283  0.8333085675605503  0.1666201575622281
  0.5001319513576092  0.8335264953554571  0.0848841541196350
  0.3333266585516128  0.8334495507257458  0.9604998770121398
  0.6669144025047160  0.0000743238049097  0.0421569373184951
  0.5000224759863983  0.0002990965672112  0.9174726541794485
  0.3333776821804335  0.6654185818303375  0.3205723847164847
  0.5033587942176254  0.6650124859018334  0.2076548879883617
  0.5034049644091638  0.8319262599244368  0.2907189102972723
  0.9993467003201673  0.1671793260050123  0.6675880526586582
  0.8333237207612072  0.1678956697158043  0.5853034045515599
  0.6652246678632991  0.1667897406006489  0.4607028973963168
  0.0004650939306856  0.3341946004959624  0.5419714350219209
  0.8333504039392849  0.3342205692155602  0.4175791512012381
  0.6667895284277847  0.0014774659424504  0.8357455325671097
  0.8333556948509937  0.0007435751589284  0.7104556802723607
  0.8333731559053703  0.1673564985596627  0.7919920347820693
  0.9998591149921339  0.1651936303091404  0.1670426224475392
  0.8333125965644896  0.1665532934240304  0.0855564196922884
  0.6669516370316515  0.1664912986687739  0.9606102229248634
  0.9995958015719637  0.3329345467206579  0.0423112358981399
  0.8333208228191609  0.3333097678316719  0.9177459053708077
  0.6673513346138193  0.9993864774079668  0.3352591369706630
  0.8333515497433837  0.9992587450764532  0.2108223218132963
  0.8333846544387811  0.1658921137918767  0.2923466213296280
  0.9989520976868747  0.5016625158674302  0.6681315891827211
  0.8333247262640384  0.5011988283092208  0.5862258471179231
  0.6638265534984100  0.4999982263364302  0.4602923290128800
  0.0028321988658391  0.6667373899522744  0.5425604206390560
  0.8333603638964178  0.6655576335024307  0.4166235520117567
  0.6672240746076525  0.3333459532041800  0.8361742705095025
  0.8333422085790900  0.3342689308466831  0.7109535073542901
  0.8333632773724489  0.5009713931000093  0.7932089097787767
  0.9994069462622406  0.4976613352506618  0.1665804511337399
  0.8333254035485353  0.5000511395864393  0.0848952041386184
  0.6668825175568003  0.4998576206171421  0.9605091659415876
  0.9997327160045373  0.6666757164639350  0.0423089445649012
  0.8333118039723715  0.6664768777889876  0.9179387282686022
  0.6668000511535865  0.3323456422066471  0.3356296038588980
  0.8333160439931859  0.3320106558279790  0.2107380716176550
  0.8333893758393245  0.4988271365506947  0.2916729692622084
  0.9998983192218631  0.8343319249865999  0.6672303087430009
  0.8333228373913357  0.8325638417232497  0.5852748601316762
  0.6662174478583509  0.8325498752758520  0.4608861577903482
  0.0014867846642161  0.9999458125531220  0.5421427144398265
  0.8333632134232829  0.9988063988280018  0.4175409969877322
  0.6672696140249244  0.6688852968765389  0.8362446889512825
  0.8333256557227173  0.6678305530467057  0.7111370382026152
  0.8333654608218950  0.8346204736324907  0.7920799475090163
  0.9994480059068991  0.8333033181522183  0.1666197522356896
  0.8333150740078068  0.8332777134415323  0.0850600595957189
  0.6670154563751680  0.8336163563602241  0.9604807528326660
  0.9996727252749480  0.0000749767747834  0.0421773319245986
  0.8333209297714745  0.9999670487035885  0.9172419306324429
  0.6677042234674460  0.6649927360520564  0.3347390144024871
  0.8333492937169567  0.6656701572388641  0.2095844823336463
  0.8333815513961866  0.8323536558673723  0.2918518071440346
  0.3332677312836054  0.4625483266647024  0.5852757725755495
  0.3333193181913430  0.7044239871580658  0.4175452678996123
 
  0.00000000E+00  0.00000000E+00  0.00000000E+00
  0.00000000E+00  0.00000000E+00  0.00000000E+00
  0.00000000E+00  0.00000000E+00  0.00000000E+00
  0.00000000E+00  0.00000000E+00  0.00000000E+00
  0.00000000E+00  0.00000000E+00  0.00000000E+00
  0.00000000E+00  0.00000000E+00  0.00000000E+00
  0.00000000E+00  0.00000000E+00  0.00000000E+00
  0.00000000E+00  0.00000000E+00  0.00000000E+00
  0.00000000E+00  0.00000000E+00  0.00000000E+00
  0.00000000E+00  0.00000000E+00  0.00000000E+00
  0.00000000E+00  0.00000000E+00  0.00000000E+00
  0.00000000E+00  0.00000000E+00  0.00000000E+00
  0.00000000E+00  0.00000000E+00  0.00000000E+00
  0.00000000E+00  0.00000000E+00  0.00000000E+00
  0.00000000E+00  0.00000000E+00  0.00000000E+00
  0.00000000E+00  0.00000000E+00  0.00000000E+00
  0.00000000E+00  0.00000000E+00  0.00000000E+00
  0.00000000E+00  0.00000000E+00  0.00000000E+00
  0.00000000E+00  0.00000000E+00  0.00000000E+00
  0.00000000E+00  0.00000000E+00  0.00000000E+00
  0.00000000E+00  0.00000000E+00  0.00000000E+00
  0.00000000E+00  0.00000000E+00  0.00000000E+00
  0.00000000E+00  0.00000000E+00  0.00000000E+00
  0.00000000E+00  0.00000000E+00  0.00000000E+00
  0.00000000E+00  0.00000000E+00  0.00000000E+00
  0.00000000E+00  0.00000000E+00  0.00000000E+00
  0.00000000E+00  0.00000000E+00  0.00000000E+00
  0.00000000E+00  0.00000000E+00  0.00000000E+00
  0.00000000E+00  0.00000000E+00  0.00000000E+00
  0.00000000E+00  0.00000000E+00  0.00000000E+00
  0.00000000E+00  0.00000000E+00  0.00000000E+00
  0.00000000E+00  0.00000000E+00  0.00000000E+00
  0.00000000E+00  0.00000000E+00  0.00000000E+00
  0.00000000E+00  0.00000000E+00  0.00000000E+00
  0.00000000E+00  0.00000000E+00  0.00000000E+00
  0.00000000E+00  0.00000000E+00  0.00000000E+00
  0.00000000E+00  0.00000000E+00  0.00000000E+00
  0.00000000E+00  0.00000000E+00  0.00000000E+00
  0.00000000E+00  0.00000000E+00  0.00000000E+00
  0.00000000E+00  0.00000000E+00  0.00000000E+00
  0.00000000E+00  0.00000000E+00  0.00000000E+00
  0.00000000E+00  0.00000000E+00  0.00000000E+00
  0.00000000E+00  0.00000000E+00  0.00000000E+00
  0.00000000E+00  0.00000000E+00  0.00000000E+00
  0.00000000E+00  0.00000000E+00  0.00000000E+00
  0.00000000E+00  0.00000000E+00  0.00000000E+00
  0.00000000E+00  0.00000000E+00  0.00000000E+00
  0.00000000E+00  0.00000000E+00  0.00000000E+00
  0.00000000E+00  0.00000000E+00  0.00000000E+00
  0.00000000E+00  0.00000000E+00  0.00000000E+00
  0.00000000E+00  0.00000000E+00  0.00000000E+00
  0.00000000E+00  0.00000000E+00  0.00000000E+00
  0.00000000E+00  0.00000000E+00  0.00000000E+00
  0.00000000E+00  0.00000000E+00  0.00000000E+00
  0.00000000E+00  0.00000000E+00  0.00000000E+00
  0.00000000E+00  0.00000000E+00  0.00000000E+00
  0.00000000E+00  0.00000000E+00  0.00000000E+00
  0.00000000E+00  0.00000000E+00  0.00000000E+00
  0.00000000E+00  0.00000000E+00  0.00000000E+00
  0.00000000E+00  0.00000000E+00  0.00000000E+00
  0.00000000E+00  0.00000000E+00  0.00000000E+00
  0.00000000E+00  0.00000000E+00  0.00000000E+00
  0.00000000E+00  0.00000000E+00  0.00000000E+00
  0.00000000E+00  0.00000000E+00  0.00000000E+00
  0.00000000E+00  0.00000000E+00  0.00000000E+00
  0.00000000E+00  0.00000000E+00  0.00000000E+00
  0.00000000E+00  0.00000000E+00  0.00000000E+00
  0.00000000E+00  0.00000000E+00  0.00000000E+00
  0.00000000E+00  0.00000000E+00  0.00000000E+00
  0.00000000E+00  0.00000000E+00  0.00000000E+00
  0.00000000E+00  0.00000000E+00  0.00000000E+00
  0.00000000E+00  0.00000000E+00  0.00000000E+00
  0.00000000E+00  0.00000000E+00  0.00000000E+00
  0.00000000E+00  0.00000000E+00  0.00000000E+00
  0.00000000E+00  0.00000000E+00  0.00000000E+00
  0.00000000E+00  0.00000000E+00  0.00000000E+00
  0.00000000E+00  0.00000000E+00  0.00000000E+00
  0.00000000E+00  0.00000000E+00  0.00000000E+00
  0.00000000E+00  0.00000000E+00  0.00000000E+00
  0.00000000E+00  0.00000000E+00  0.00000000E+00
  0.00000000E+00  0.00000000E+00  0.00000000E+00
  0.00000000E+00  0.00000000E+00  0.00000000E+00
  0.00000000E+00  0.00000000E+00  0.00000000E+00
  0.00000000E+00  0.00000000E+00  0.00000000E+00
  0.00000000E+00  0.00000000E+00  0.00000000E+00
  0.00000000E+00  0.00000000E+00  0.00000000E+00
  0.00000000E+00  0.00000000E+00  0.00000000E+00
  0.00000000E+00  0.00000000E+00  0.00000000E+00
  0.00000000E+00  0.00000000E+00  0.00000000E+00
  0.00000000E+00  0.00000000E+00  0.00000000E+00
  0.00000000E+00  0.00000000E+00  0.00000000E+00
  0.00000000E+00  0.00000000E+00  0.00000000E+00
  0.00000000E+00  0.00000000E+00  0.00000000E+00
  0.00000000E+00  0.00000000E+00  0.00000000E+00
  0.00000000E+00  0.00000000E+00  0.00000000E+00
  0.00000000E+00  0.00000000E+00  0.00000000E+00
  0.00000000E+00  0.00000000E+00  0.00000000E+00
  0.00000000E+00  0.00000000E+00  0.00000000E+00
  0.00000000E+00  0.00000000E+00  0.00000000E+00
  0.00000000E+00  0.00000000E+00  0.00000000E+00
  0.00000000E+00  0.00000000E+00  0.00000000E+00
  0.00000000E+00  0.00000000E+00  0.00000000E+00
  0.00000000E+00  0.00000000E+00  0.00000000E+00
  0.00000000E+00  0.00000000E+00  0.00000000E+00
  0.00000000E+00  0.00000000E+00  0.00000000E+00
  0.00000000E+00  0.00000000E+00  0.00000000E+00
  0.00000000E+00  0.00000000E+00  0.00000000E+00
  0.00000000E+00  0.00000000E+00  0.00000000E+00
  0.00000000E+00  0.00000000E+00  0.00000000E+00
  0.00000000E+00  0.00000000E+00  0.00000000E+00
  0.00000000E+00  0.00000000E+00  0.00000000E+00
  0.00000000E+00  0.00000000E+00  0.00000000E+00
  0.00000000E+00  0.00000000E+00  0.00000000E+00
  0.00000000E+00  0.00000000E+00  0.00000000E+00
  0.00000000E+00  0.00000000E+00  0.00000000E+00
  0.00000000E+00  0.00000000E+00  0.00000000E+00
  0.00000000E+00  0.00000000E+00  0.00000000E+00
  0.00000000E+00  0.00000000E+00  0.00000000E+00
  0.00000000E+00  0.00000000E+00  0.00000000E+00
  0.00000000E+00  0.00000000E+00  0.00000000E+00
  0.00000000E+00  0.00000000E+00  0.00000000E+00
  0.00000000E+00  0.00000000E+00  0.00000000E+00
  0.00000000E+00  0.00000000E+00  0.00000000E+00
  0.00000000E+00  0.00000000E+00  0.00000000E+00
  0.00000000E+00  0.00000000E+00  0.00000000E+00
  0.00000000E+00  0.00000000E+00  0.00000000E+00
  0.00000000E+00  0.00000000E+00  0.00000000E+00
  0.00000000E+00  0.00000000E+00  0.00000000E+00
  0.00000000E+00  0.00000000E+00  0.00000000E+00
  0.00000000E+00  0.00000000E+00  0.00000000E+00
  0.00000000E+00  0.00000000E+00  0.00000000E+00
  0.00000000E+00  0.00000000E+00  0.00000000E+00
  0.00000000E+00  0.00000000E+00  0.00000000E+00
  0.00000000E+00  0.00000000E+00  0.00000000E+00
  0.00000000E+00  0.00000000E+00  0.00000000E+00
  0.00000000E+00  0.00000000E+00  0.00000000E+00
  0.00000000E+00  0.00000000E+00  0.00000000E+00
  0.00000000E+00  0.00000000E+00  0.00000000E+00
  0.00000000E+00  0.00000000E+00  0.00000000E+00
  0.00000000E+00  0.00000000E+00  0.00000000E+00
  0.00000000E+00  0.00000000E+00  0.00000000E+00
  0.00000000E+00  0.00000000E+00  0.00000000E+00
  0.00000000E+00  0.00000000E+00  0.00000000E+00
  0.00000000E+00  0.00000000E+00  0.00000000E+00
  0.00000000E+00  0.00000000E+00  0.00000000E+00
  0.00000000E+00  0.00000000E+00  0.00000000E+00
  0.00000000E+00  0.00000000E+00  0.00000000E+00
  0.00000000E+00  0.00000000E+00  0.00000000E+00
  0.00000000E+00  0.00000000E+00  0.00000000E+00
  0.00000000E+00  0.00000000E+00  0.00000000E+00
  0.00000000E+00  0.00000000E+00  0.00000000E+00
  0.00000000E+00  0.00000000E+00  0.00000000E+00
  0.00000000E+00  0.00000000E+00  0.00000000E+00
  0.00000000E+00  0.00000000E+00  0.00000000E+00
  0.00000000E+00  0.00000000E+00  0.00000000E+00
  0.00000000E+00  0.00000000E+00  0.00000000E+00
  0.00000000E+00  0.00000000E+00  0.00000000E+00
  0.00000000E+00  0.00000000E+00  0.00000000E+00
  0.00000000E+00  0.00000000E+00  0.00000000E+00
  0.00000000E+00  0.00000000E+00  0.00000000E+00
  0.00000000E+00  0.00000000E+00  0.00000000E+00
  0.00000000E+00  0.00000000E+00  0.00000000E+00
  0.00000000E+00  0.00000000E+00  0.00000000E+00
  0.00000000E+00  0.00000000E+00  0.00000000E+00
  0.00000000E+00  0.00000000E+00  0.00000000E+00
  0.00000000E+00  0.00000000E+00  0.00000000E+00
  0.00000000E+00  0.00000000E+00  0.00000000E+00
  0.00000000E+00  0.00000000E+00  0.00000000E+00
  0.00000000E+00  0.00000000E+00  0.00000000E+00
  0.00000000E+00  0.00000000E+00  0.00000000E+00
  0.00000000E+00  0.00000000E+00  0.00000000E+00
  0.00000000E+00  0.00000000E+00  0.00000000E+00
  0.00000000E+00  0.00000000E+00  0.00000000E+00
  0.00000000E+00  0.00000000E+00  0.00000000E+00
  0.00000000E+00  0.00000000E+00  0.00000000E+00
  0.00000000E+00  0.00000000E+00  0.00000000E+00
  0.00000000E+00  0.00000000E+00  0.00000000E+00
  0.00000000E+00  0.00000000E+00  0.00000000E+00
  0.00000000E+00  0.00000000E+00  0.00000000E+00
  0.00000000E+00  0.00000000E+00  0.00000000E+00
  0.00000000E+00  0.00000000E+00  0.00000000E+00
  0.00000000E+00  0.00000000E+00  0.00000000E+00
  0.00000000E+00  0.00000000E+00  0.00000000E+00
  0.00000000E+00  0.00000000E+00  0.00000000E+00
  0.00000000E+00  0.00000000E+00  0.00000000E+00
  0.00000000E+00  0.00000000E+00  0.00000000E+00
  0.00000000E+00  0.00000000E+00  0.00000000E+00
  0.00000000E+00  0.00000000E+00  0.00000000E+00
  0.00000000E+00  0.00000000E+00  0.00000000E+00
  0.00000000E+00  0.00000000E+00  0.00000000E+00
  0.00000000E+00  0.00000000E+00  0.00000000E+00
  0.00000000E+00  0.00000000E+00  0.00000000E+00
  0.00000000E+00  0.00000000E+00  0.00000000E+00
  0.00000000E+00  0.00000000E+00  0.00000000E+00
  0.00000000E+00  0.00000000E+00  0.00000000E+00
  0.00000000E+00  0.00000000E+00  0.00000000E+00
  0.00000000E+00  0.00000000E+00  0.00000000E+00
  0.00000000E+00  0.00000000E+00  0.00000000E+00
  0.00000000E+00  0.00000000E+00  0.00000000E+00
  0.00000000E+00  0.00000000E+00  0.00000000E+00
  0.00000000E+00  0.00000000E+00  0.00000000E+00
  0.00000000E+00  0.00000000E+00  0.00000000E+00
  0.00000000E+00  0.00000000E+00  0.00000000E+00
  0.00000000E+00  0.00000000E+00  0.00000000E+00
  0.00000000E+00  0.00000000E+00  0.00000000E+00
  0.00000000E+00  0.00000000E+00  0.00000000E+00
  0.00000000E+00  0.00000000E+00  0.00000000E+00
  0.00000000E+00  0.00000000E+00  0.00000000E+00
  0.00000000E+00  0.00000000E+00  0.00000000E+00
  0.00000000E+00  0.00000000E+00  0.00000000E+00
  0.00000000E+00  0.00000000E+00  0.00000000E+00
  0.00000000E+00  0.00000000E+00  0.00000000E+00
  0.00000000E+00  0.00000000E+00  0.00000000E+00
  0.00000000E+00  0.00000000E+00  0.00000000E+00
