Ti4 O8                                  
   1.00000000000000     
    11.5607959665632993    0.0000000000000000    0.0000000000000000
     0.0000000000000000   11.5607959665632993    0.0000000000000000
     0.0000000000000000    0.0000000000000000   19.2862138499999993
   Ti   O    Co
    70   142     2
Direct
  0.0017163217331699  0.1634651697184282  0.5668302350815111
  0.3501806950596915  0.3359834681752218  0.4479127384251527
  0.1665990056863933  0.9991370564654360  0.8147296156803563
  0.1681488849850723  0.1666673163001136  0.6902163001238435
  0.0000143809458208  0.1665758113828062  0.0635907988207194
  0.3332550239942620  0.3333238422608531  0.9401584785228110
  0.1679260137259675  0.9999015354443017  0.3134050544055853
  0.1679615453393311  0.1643465105190174  0.1869155624723291
  0.0048362765138990  0.5019647196680026  0.5619739304362170
  0.3338130136178847  0.6661033241311856  0.4383972967892049
  0.1661997166469220  0.3317952037984071  0.8153666688275010
  0.1759908469593796  0.5004206896415297  0.6921168376722520
  0.0000168184989704  0.4999395711485306  0.0636470937163267
  0.3332035056046223  0.6673626722029908  0.9399960733052879
  0.1445380853697387  0.3333169805073197  0.3077098212580296
  0.1680386223592194  0.5022897320717234  0.1870152892464176
  0.0005059201182220  0.8333072169745535  0.5654293205688390
  0.3333010124656255  0.0002150356439046  0.4402496173857315
  0.1660750979533034  0.6683049994463488  0.8152976187016634
  0.1682186873637619  0.8337837103285040  0.6890035520609317
  0.0000742387457322  0.8333969513392034  0.0640747153701327
  0.3328533982261845  0.9995190991022156  0.9393416382814479
  0.1675568564764447  0.6671812387698211  0.3131119286880590
  0.1671423641273648  0.8336258363093876  0.1878263188485647
  0.3343352226689120  0.1637468072823154  0.5646864231342974
  0.6549101976020708  0.3304960180434406  0.4382688109445496
  0.5005543422317658  0.9994923732034025  0.8159305731257831
  0.4987436766343194  0.1659193227818676  0.6902771713759179
  0.3344535389933156  0.1660620329213032  0.0635041218890393
  0.6667789293212039  0.3333688621447521  0.9406334960661340
  0.4975663514439361  0.0036073103041900  0.3120846765883911
  0.5002496457343710  0.1679490411502584  0.1884746141714047
  0.6626809391359743  0.6693462501107561  0.4362552625503042
  0.4995954027278344  0.3284473064201592  0.8167381568161574
  0.4822188399703435  0.5001169455650398  0.6989075289008326
  0.3344625435119326  0.5003468076426998  0.0635439911521587
  0.6668666197185615  0.6669618479313897  0.9405502964756920
  0.5001878770298447  0.4984878779743056  0.1885399318010812
  0.3343613557268057  0.8290925565217080  0.5632573983495135
  0.6632309439143214  0.9996733028868476  0.4372384105272431
  0.4996483938310377  0.6715331416648596  0.8167127916466796
  0.4990345747691833  0.8337525872863978  0.6894174133552582
  0.3352397913809710  0.8336107134991479  0.0644578089955417
  0.6675719514343541  0.9998019880099989  0.9395351191961083
  0.4984169278452768  0.6637743462894150  0.3111288727850550
  0.5004552478026625  0.8340499226438993  0.1902905144895115
  0.6668580745601318  0.1648821897397283  0.5641771858552858
  0.9747468293597166  0.3303393117446376  0.4457162081010537
  0.8339211368630188  0.9997422022912801  0.8145693527131144
  0.8307735328728256  0.1666815958086545  0.6894165885737138
  0.6660885669222267  0.1659510556331867  0.0641377794945370
  0.0006664336038327  0.3333782510352279  0.9395050562998506
  0.8333169776773914  0.9997850976808920  0.3147213302123220
  0.8339128001842084  0.1626638473110020  0.1879219303723971
  0.6873469704153194  0.5007785631494386  0.5576576107607281
  0.0004768928230945  0.6712373824350593  0.4378798292791828
  0.8316586869460068  0.3310252552619488  0.8160795142723671
  0.8576380039550742  0.4998848149297288  0.6962618569555161
  0.6660669379687221  0.5001627195016951  0.0642631848363848
  0.0006787602438507  0.6668132962058522  0.9395935277785412
  0.8304623491379886  0.3333862376277992  0.3092039863695248
  0.8339491808569193  0.5041614496570190  0.1879159749186812
  0.6672958178022697  0.8333889445833123  0.5635929246460947
  0.0006156362125154  0.0008871326658024  0.4381844044045380
  0.8317332122045045  0.6687988597946131  0.8160452020352906
  0.8315957631127517  0.8330061013841359  0.6892290283501268
  0.6655370901804076  0.8338798578732707  0.0644795778608582
  0.0000484648421804  0.9998227015852592  0.9394625681565429
  0.8335357010761086  0.6670851155858912  0.3142662805522249
  0.8334944112089104  0.8336587888758089  0.1882410644775376
  0.3331754607354398  0.1641110772908263  0.6694684231567365
  0.1658985596159397  0.1656709281073958  0.5870497342628482
  0.0045544698599329  0.1680428139738055  0.4614324732593289
  0.3332981911139541  0.3301596981921406  0.5451179219408075
  0.2292531930438599  0.3311981031604034  0.3856435665240454
  0.9998927768775374  0.9997033804677642  0.8358003124039115
  0.1656432257073135  0.9995205952185486  0.7112565633597683
  0.1662066531558963  0.1661663747544324  0.7932024332718228
  0.3329149238116074  0.1651840563875311  0.1662089661215802
  0.1664043161397473  0.1659962780079951  0.0841389306965041
  0.0000897873556198  0.1665690632803916  0.9602956353616960
  0.3333582063528269  0.3332678252239489  0.0426001842096611
  0.1665938988947318  0.3334910407886582  0.9182488702904337
  0.0006103272854716  0.9989289564272568  0.3362092843792084
  0.1677335072062860  0.9992002581313244  0.2095150556440331
  0.1613319800991846  0.1663583202854682  0.2892495599783302
  0.3358053190939785  0.5006660929490891  0.6639594896916492
  0.1553155186541417  0.5001175586801381  0.5898738203876874
  0.0049697021248747  0.4972243694787508  0.4625884854627031
  0.3326275791586895  0.6707281784065628  0.5415869238884525
  0.1666111774196324  0.6665948736691334  0.4168230913593050
  0.0006756630846283  0.3326616862680183  0.8358624792158480
  0.1709338228575419  0.3331972217990824  0.7118944555566173
  0.1705046758028672  0.4999182046408350  0.7937917094584606
  0.3329787339387664  0.5016988583827668  0.1662693311982082
  0.1664918942635367  0.5004571111849643  0.0842152578607269
  0.9997127810196460  0.4999987451541443  0.9602656016247195
  0.3330679231835987  0.6670300543026997  0.0425088579964594
  0.1665520052319351  0.6666177797625252  0.9181775215185581
  0.9970971917678924  0.3338023958193119  0.3434169538422296
  0.1668319905491273  0.3333852119051386  0.2073540153808082
  0.1622346628760027  0.5001730804798044  0.2895193860076262
  0.3334328244618590  0.8344823357898576  0.6681661370009735
  0.1653850549863947  0.8326899729010222  0.5866185654998333
  0.0011132631341013  0.8337828742255837  0.4603689717445789
  0.3317140351972654  0.9991153703926017  0.5425670067085306
  0.1670648380581596  0.0016849541835597  0.4170738490464245
  0.0006503243281202  0.6671663125842144  0.8358381274829085
  0.1709779993851654  0.6665991290116366  0.7118354666301698
  0.1662603200713733  0.8334034457946800  0.7930805770772338
  0.3336331351878101  0.8336268387730641  0.1665976646938461
  0.1664864348560329  0.8334546743715947  0.0853029332224153
  0.0002989573968506  0.8333258596494204  0.9605347583959443
  0.3331478401687633  0.9997199462972262  0.0422028003986270
  0.1664884285200969  0.9997697680874396  0.9176046209271220
  0.0008327487985724  0.6681463648899353  0.3357098690564086
  0.1674855617821862  0.6675982610578330  0.2095540292476770
  0.1663965756183288  0.8336051866409449  0.2917561249501190
  0.6660914254024135  0.1679393516066483  0.6684750861788729
  0.5004633651327737  0.1654769294762914  0.5876871902636651
  0.3391140474140357  0.1648218141814937  0.4630051008855460
  0.6670539390442656  0.3327816618245976  0.5402567555494286
  0.4965202455500943  0.3318254305617359  0.4110780733952168
  0.3332448652855504  0.9996054433945574  0.8361175853820129
  0.5003359729899941  0.9996400773041572  0.7119760620321998
  0.5016015383127481  0.1650083729709522  0.7947823401901957
  0.6675112747512060  0.1654873348984793  0.1667097822538040
  0.5002401431846266  0.1655975149386322  0.0838468573448878
  0.3329971153489808  0.1663481115485794  0.9604664434462080
  0.6670828008911869  0.3333129603166682  0.0427120200537914
  0.5004142221520382  0.3325194552496242  0.9194039261917766
  0.3321780229568105  0.0019669808137408  0.3347502239967923
  0.4999041433079867  0.9999292240300122  0.2087359012887617
  0.4999813094116732  0.1642592863910792  0.2899938227573742
  0.5982825288275464  0.5006395202734595  0.6341484148442689
  0.3401809750253264  0.5032818353643478  0.4574911587968771
  0.6715480011770225  0.6673092311938404  0.5395361799802671
  0.5006186734582130  0.6707725206893613  0.4158686851371201
  0.3335577211182397  0.3309385112364183  0.8370951955576516
  0.4950255277603759  0.3313505936573193  0.7146382662193815
  0.4994509663407740  0.4999840108878004  0.7968008350652980
  0.6675671468802307  0.5012846583459094  0.1667052218319114
  0.5002622967402459  0.5009474572558261  0.0838856362413054
  0.3334771925156730  0.5001010271148587  0.9604452189239865
  0.6674925376923753  0.6668622675772440  0.0426036082249510
  0.5004513517450633  0.6676351822054869  0.9193492323722552
  0.5001301783309131  0.3335330855475291  0.2031631056696881
  0.5002297028377498  0.5027733254564097  0.2900658291969407
  0.6663584645456737  0.8319574615595897  0.6678291559421581
  0.5010669911738290  0.8319763265389142  0.5866570334013517
  0.3334558116777373  0.8345093562791632  0.4602332232184381
  0.6666773759766400  0.9997196125653574  0.5423157533395866
  0.4995372913734002  0.9987205345761083  0.4164569749064526
  0.3335726129341339  0.6690090227434311  0.8370450086288912
  0.4952982865021980  0.6686314779892015  0.7145981931148810
  0.5016332007133357  0.8346504482704447  0.7944915406594717
  0.6670619668975846  0.8337786997276808  0.1668560349180481
  0.5003936811992986  0.8336149331566105  0.0841452798107909
  0.3330146284672608  0.8335151681087680  0.9604710447033611
  0.6675666665324727  0.9998703361826671  0.0425045329332931
  0.5003690979307436  0.9998124124055536  0.9181634300972163
  0.3325436675526987  0.6659337873968880  0.3340961332831540
  0.5001446864705912  0.6674321509820018  0.2086806951010232
  0.5002407082044797  0.8339711882978449  0.2904312249325471
  0.9992247650445307  0.1678667744860931  0.6684211096138242
  0.8316997843000848  0.1645234146959353  0.5866540702888869
  0.6601896238563043  0.1656705133701877  0.4606203834430715
  0.9930858745194584  0.3320882067121929  0.5458490234165865
  0.8272360242618504  0.3319065145070539  0.4262660146475241
  0.6677338047496235  0.9997262352817273  0.8363619404051619
  0.8322413330987715  0.9997876731022757  0.7110507993474329
  0.8338153317078962  0.1666616050201313  0.7927737361446816
  0.9998097775521941  0.1657789994080403  0.1663805185618159
  0.8336357871758864  0.1663717728900949  0.0851152439616811
  0.6675627485839613  0.1664005100290709  0.9607478914661343
  0.9999119591974974  0.3333315454252883  0.0421546927196630
  0.8335785073864130  0.3327048181997796  0.9179925581656292
  0.6674198413070940  0.0009128579079345  0.3354675706766059
  0.8331297628635639  0.9996785062641891  0.2098780632820834
  0.8377655252506315  0.1655002313394363  0.2916159541306413
  0.0060590842025974  0.5004561826114369  0.6767897642185048
  0.8344980411940739  0.5005465880527922  0.5941062789588329
  0.6612418393873867  0.4998906557365430  0.4580955422218125
  0.9961651404853527  0.6676543429056920  0.5422475015588830
  0.8345215009677815  0.6654133130477504  0.4166421465195640
  0.6668615131923090  0.3322389164907236  0.8366301244327445
  0.8288765027421618  0.3354388605405774  0.7116678086227211
  0.8359593280677302  0.4998527590244706  0.7958359217710154
  0.9998823165914672  0.5008830654599592  0.1664371217614686
  0.8336854140422005  0.5001960806217483  0.0851084659107002
  0.6674885132174353  0.5000314378149753  0.9606957584017479
  0.9999249574096893  0.6667188772126664  0.0421694486677566
  0.8336554675821830  0.6673783600844416  0.9179936164016027
  0.6791692966410068  0.3328378619571950  0.3377165160386681
  0.8327903205173612  0.3333432072619402  0.2108120696273375
  0.8375350231504015  0.5012480461164657  0.2915330526696707
  0.9991360724576310  0.8309600203093126  0.6678599674417214
  0.8326061600342882  0.8342774140062801  0.5865034519273777
  0.6663053052205470  0.8344855483728537  0.4599238776204473
  0.9990714373879044  0.9997947282404809  0.5426867824599668
  0.8340085128011197  0.0023802606494527  0.4172534415927061
  0.6669423876580609  0.6676590407074343  0.8366226445248373
  0.8286310049179733  0.6643206300149913  0.7117377705368000
  0.8340141183144070  0.8330614872663205  0.7927180430709058
  0.0000557768550991  0.8336384014509051  0.1670327385452879
  0.8337803440360716  0.8334094976979927  0.0854823738507875
  0.6674841245104375  0.8335599018904034  0.9607186514103176
  0.9997377480039873  0.9998724038256697  0.0421302177641749
  0.8339286177311536  0.9998493849665664  0.9176268237938956
  0.6678284847992160  0.6666363734565621  0.3343046362834485
  0.8333858615264305  0.6672816516283007  0.2096261138415585
  0.8341632401579773  0.8336073306647265  0.2918539530144599
  0.3150203654107244  0.5025727706025407  0.5579338248551977
  0.5193876386299578  0.3333545315069841  0.3047388639560609
 
  0.00000000E+00  0.00000000E+00  0.00000000E+00
  0.00000000E+00  0.00000000E+00  0.00000000E+00
  0.00000000E+00  0.00000000E+00  0.00000000E+00
  0.00000000E+00  0.00000000E+00  0.00000000E+00
  0.00000000E+00  0.00000000E+00  0.00000000E+00
  0.00000000E+00  0.00000000E+00  0.00000000E+00
  0.00000000E+00  0.00000000E+00  0.00000000E+00
  0.00000000E+00  0.00000000E+00  0.00000000E+00
  0.00000000E+00  0.00000000E+00  0.00000000E+00
  0.00000000E+00  0.00000000E+00  0.00000000E+00
  0.00000000E+00  0.00000000E+00  0.00000000E+00
  0.00000000E+00  0.00000000E+00  0.00000000E+00
  0.00000000E+00  0.00000000E+00  0.00000000E+00
  0.00000000E+00  0.00000000E+00  0.00000000E+00
  0.00000000E+00  0.00000000E+00  0.00000000E+00
  0.00000000E+00  0.00000000E+00  0.00000000E+00
  0.00000000E+00  0.00000000E+00  0.00000000E+00
  0.00000000E+00  0.00000000E+00  0.00000000E+00
  0.00000000E+00  0.00000000E+00  0.00000000E+00
  0.00000000E+00  0.00000000E+00  0.00000000E+00
  0.00000000E+00  0.00000000E+00  0.00000000E+00
  0.00000000E+00  0.00000000E+00  0.00000000E+00
  0.00000000E+00  0.00000000E+00  0.00000000E+00
  0.00000000E+00  0.00000000E+00  0.00000000E+00
  0.00000000E+00  0.00000000E+00  0.00000000E+00
  0.00000000E+00  0.00000000E+00  0.00000000E+00
  0.00000000E+00  0.00000000E+00  0.00000000E+00
  0.00000000E+00  0.00000000E+00  0.00000000E+00
  0.00000000E+00  0.00000000E+00  0.00000000E+00
  0.00000000E+00  0.00000000E+00  0.00000000E+00
  0.00000000E+00  0.00000000E+00  0.00000000E+00
  0.00000000E+00  0.00000000E+00  0.00000000E+00
  0.00000000E+00  0.00000000E+00  0.00000000E+00
  0.00000000E+00  0.00000000E+00  0.00000000E+00
  0.00000000E+00  0.00000000E+00  0.00000000E+00
  0.00000000E+00  0.00000000E+00  0.00000000E+00
  0.00000000E+00  0.00000000E+00  0.00000000E+00
  0.00000000E+00  0.00000000E+00  0.00000000E+00
  0.00000000E+00  0.00000000E+00  0.00000000E+00
  0.00000000E+00  0.00000000E+00  0.00000000E+00
  0.00000000E+00  0.00000000E+00  0.00000000E+00
  0.00000000E+00  0.00000000E+00  0.00000000E+00
  0.00000000E+00  0.00000000E+00  0.00000000E+00
  0.00000000E+00  0.00000000E+00  0.00000000E+00
  0.00000000E+00  0.00000000E+00  0.00000000E+00
  0.00000000E+00  0.00000000E+00  0.00000000E+00
  0.00000000E+00  0.00000000E+00  0.00000000E+00
  0.00000000E+00  0.00000000E+00  0.00000000E+00
  0.00000000E+00  0.00000000E+00  0.00000000E+00
  0.00000000E+00  0.00000000E+00  0.00000000E+00
  0.00000000E+00  0.00000000E+00  0.00000000E+00
  0.00000000E+00  0.00000000E+00  0.00000000E+00
  0.00000000E+00  0.00000000E+00  0.00000000E+00
  0.00000000E+00  0.00000000E+00  0.00000000E+00
  0.00000000E+00  0.00000000E+00  0.00000000E+00
  0.00000000E+00  0.00000000E+00  0.00000000E+00
  0.00000000E+00  0.00000000E+00  0.00000000E+00
  0.00000000E+00  0.00000000E+00  0.00000000E+00
  0.00000000E+00  0.00000000E+00  0.00000000E+00
  0.00000000E+00  0.00000000E+00  0.00000000E+00
  0.00000000E+00  0.00000000E+00  0.00000000E+00
  0.00000000E+00  0.00000000E+00  0.00000000E+00
  0.00000000E+00  0.00000000E+00  0.00000000E+00
  0.00000000E+00  0.00000000E+00  0.00000000E+00
  0.00000000E+00  0.00000000E+00  0.00000000E+00
  0.00000000E+00  0.00000000E+00  0.00000000E+00
  0.00000000E+00  0.00000000E+00  0.00000000E+00
  0.00000000E+00  0.00000000E+00  0.00000000E+00
  0.00000000E+00  0.00000000E+00  0.00000000E+00
  0.00000000E+00  0.00000000E+00  0.00000000E+00
  0.00000000E+00  0.00000000E+00  0.00000000E+00
  0.00000000E+00  0.00000000E+00  0.00000000E+00
  0.00000000E+00  0.00000000E+00  0.00000000E+00
  0.00000000E+00  0.00000000E+00  0.00000000E+00
  0.00000000E+00  0.00000000E+00  0.00000000E+00
  0.00000000E+00  0.00000000E+00  0.00000000E+00
  0.00000000E+00  0.00000000E+00  0.00000000E+00
  0.00000000E+00  0.00000000E+00  0.00000000E+00
  0.00000000E+00  0.00000000E+00  0.00000000E+00
  0.00000000E+00  0.00000000E+00  0.00000000E+00
  0.00000000E+00  0.00000000E+00  0.00000000E+00
  0.00000000E+00  0.00000000E+00  0.00000000E+00
  0.00000000E+00  0.00000000E+00  0.00000000E+00
  0.00000000E+00  0.00000000E+00  0.00000000E+00
  0.00000000E+00  0.00000000E+00  0.00000000E+00
  0.00000000E+00  0.00000000E+00  0.00000000E+00
  0.00000000E+00  0.00000000E+00  0.00000000E+00
  0.00000000E+00  0.00000000E+00  0.00000000E+00
  0.00000000E+00  0.00000000E+00  0.00000000E+00
  0.00000000E+00  0.00000000E+00  0.00000000E+00
  0.00000000E+00  0.00000000E+00  0.00000000E+00
  0.00000000E+00  0.00000000E+00  0.00000000E+00
  0.00000000E+00  0.00000000E+00  0.00000000E+00
  0.00000000E+00  0.00000000E+00  0.00000000E+00
  0.00000000E+00  0.00000000E+00  0.00000000E+00
  0.00000000E+00  0.00000000E+00  0.00000000E+00
  0.00000000E+00  0.00000000E+00  0.00000000E+00
  0.00000000E+00  0.00000000E+00  0.00000000E+00
  0.00000000E+00  0.00000000E+00  0.00000000E+00
  0.00000000E+00  0.00000000E+00  0.00000000E+00
  0.00000000E+00  0.00000000E+00  0.00000000E+00
  0.00000000E+00  0.00000000E+00  0.00000000E+00
  0.00000000E+00  0.00000000E+00  0.00000000E+00
  0.00000000E+00  0.00000000E+00  0.00000000E+00
  0.00000000E+00  0.00000000E+00  0.00000000E+00
  0.00000000E+00  0.00000000E+00  0.00000000E+00
  0.00000000E+00  0.00000000E+00  0.00000000E+00
  0.00000000E+00  0.00000000E+00  0.00000000E+00
  0.00000000E+00  0.00000000E+00  0.00000000E+00
  0.00000000E+00  0.00000000E+00  0.00000000E+00
  0.00000000E+00  0.00000000E+00  0.00000000E+00
  0.00000000E+00  0.00000000E+00  0.00000000E+00
  0.00000000E+00  0.00000000E+00  0.00000000E+00
  0.00000000E+00  0.00000000E+00  0.00000000E+00
  0.00000000E+00  0.00000000E+00  0.00000000E+00
  0.00000000E+00  0.00000000E+00  0.00000000E+00
  0.00000000E+00  0.00000000E+00  0.00000000E+00
  0.00000000E+00  0.00000000E+00  0.00000000E+00
  0.00000000E+00  0.00000000E+00  0.00000000E+00
  0.00000000E+00  0.00000000E+00  0.00000000E+00
  0.00000000E+00  0.00000000E+00  0.00000000E+00
  0.00000000E+00  0.00000000E+00  0.00000000E+00
  0.00000000E+00  0.00000000E+00  0.00000000E+00
  0.00000000E+00  0.00000000E+00  0.00000000E+00
  0.00000000E+00  0.00000000E+00  0.00000000E+00
  0.00000000E+00  0.00000000E+00  0.00000000E+00
  0.00000000E+00  0.00000000E+00  0.00000000E+00
  0.00000000E+00  0.00000000E+00  0.00000000E+00
  0.00000000E+00  0.00000000E+00  0.00000000E+00
  0.00000000E+00  0.00000000E+00  0.00000000E+00
  0.00000000E+00  0.00000000E+00  0.00000000E+00
  0.00000000E+00  0.00000000E+00  0.00000000E+00
  0.00000000E+00  0.00000000E+00  0.00000000E+00
  0.00000000E+00  0.00000000E+00  0.00000000E+00
  0.00000000E+00  0.00000000E+00  0.00000000E+00
  0.00000000E+00  0.00000000E+00  0.00000000E+00
  0.00000000E+00  0.00000000E+00  0.00000000E+00
  0.00000000E+00  0.00000000E+00  0.00000000E+00
  0.00000000E+00  0.00000000E+00  0.00000000E+00
  0.00000000E+00  0.00000000E+00  0.00000000E+00
  0.00000000E+00  0.00000000E+00  0.00000000E+00
  0.00000000E+00  0.00000000E+00  0.00000000E+00
  0.00000000E+00  0.00000000E+00  0.00000000E+00
  0.00000000E+00  0.00000000E+00  0.00000000E+00
  0.00000000E+00  0.00000000E+00  0.00000000E+00
  0.00000000E+00  0.00000000E+00  0.00000000E+00
  0.00000000E+00  0.00000000E+00  0.00000000E+00
  0.00000000E+00  0.00000000E+00  0.00000000E+00
  0.00000000E+00  0.00000000E+00  0.00000000E+00
  0.00000000E+00  0.00000000E+00  0.00000000E+00
  0.00000000E+00  0.00000000E+00  0.00000000E+00
  0.00000000E+00  0.00000000E+00  0.00000000E+00
  0.00000000E+00  0.00000000E+00  0.00000000E+00
  0.00000000E+00  0.00000000E+00  0.00000000E+00
  0.00000000E+00  0.00000000E+00  0.00000000E+00
  0.00000000E+00  0.00000000E+00  0.00000000E+00
  0.00000000E+00  0.00000000E+00  0.00000000E+00
  0.00000000E+00  0.00000000E+00  0.00000000E+00
  0.00000000E+00  0.00000000E+00  0.00000000E+00
  0.00000000E+00  0.00000000E+00  0.00000000E+00
  0.00000000E+00  0.00000000E+00  0.00000000E+00
  0.00000000E+00  0.00000000E+00  0.00000000E+00
  0.00000000E+00  0.00000000E+00  0.00000000E+00
  0.00000000E+00  0.00000000E+00  0.00000000E+00
  0.00000000E+00  0.00000000E+00  0.00000000E+00
  0.00000000E+00  0.00000000E+00  0.00000000E+00
  0.00000000E+00  0.00000000E+00  0.00000000E+00
  0.00000000E+00  0.00000000E+00  0.00000000E+00
  0.00000000E+00  0.00000000E+00  0.00000000E+00
  0.00000000E+00  0.00000000E+00  0.00000000E+00
  0.00000000E+00  0.00000000E+00  0.00000000E+00
  0.00000000E+00  0.00000000E+00  0.00000000E+00
  0.00000000E+00  0.00000000E+00  0.00000000E+00
  0.00000000E+00  0.00000000E+00  0.00000000E+00
  0.00000000E+00  0.00000000E+00  0.00000000E+00
  0.00000000E+00  0.00000000E+00  0.00000000E+00
  0.00000000E+00  0.00000000E+00  0.00000000E+00
  0.00000000E+00  0.00000000E+00  0.00000000E+00
  0.00000000E+00  0.00000000E+00  0.00000000E+00
  0.00000000E+00  0.00000000E+00  0.00000000E+00
  0.00000000E+00  0.00000000E+00  0.00000000E+00
  0.00000000E+00  0.00000000E+00  0.00000000E+00
  0.00000000E+00  0.00000000E+00  0.00000000E+00
  0.00000000E+00  0.00000000E+00  0.00000000E+00
  0.00000000E+00  0.00000000E+00  0.00000000E+00
  0.00000000E+00  0.00000000E+00  0.00000000E+00
  0.00000000E+00  0.00000000E+00  0.00000000E+00
  0.00000000E+00  0.00000000E+00  0.00000000E+00
  0.00000000E+00  0.00000000E+00  0.00000000E+00
  0.00000000E+00  0.00000000E+00  0.00000000E+00
  0.00000000E+00  0.00000000E+00  0.00000000E+00
  0.00000000E+00  0.00000000E+00  0.00000000E+00
  0.00000000E+00  0.00000000E+00  0.00000000E+00
  0.00000000E+00  0.00000000E+00  0.00000000E+00
  0.00000000E+00  0.00000000E+00  0.00000000E+00
  0.00000000E+00  0.00000000E+00  0.00000000E+00
  0.00000000E+00  0.00000000E+00  0.00000000E+00
  0.00000000E+00  0.00000000E+00  0.00000000E+00
  0.00000000E+00  0.00000000E+00  0.00000000E+00
  0.00000000E+00  0.00000000E+00  0.00000000E+00
  0.00000000E+00  0.00000000E+00  0.00000000E+00
  0.00000000E+00  0.00000000E+00  0.00000000E+00
  0.00000000E+00  0.00000000E+00  0.00000000E+00
  0.00000000E+00  0.00000000E+00  0.00000000E+00
  0.00000000E+00  0.00000000E+00  0.00000000E+00
  0.00000000E+00  0.00000000E+00  0.00000000E+00
  0.00000000E+00  0.00000000E+00  0.00000000E+00
  0.00000000E+00  0.00000000E+00  0.00000000E+00
  0.00000000E+00  0.00000000E+00  0.00000000E+00
  0.00000000E+00  0.00000000E+00  0.00000000E+00
  0.00000000E+00  0.00000000E+00  0.00000000E+00
  0.00000000E+00  0.00000000E+00  0.00000000E+00
  0.00000000E+00  0.00000000E+00  0.00000000E+00
  0.00000000E+00  0.00000000E+00  0.00000000E+00
